 vasp.5.4.4.18Apr17-6-g9f103f2a35 (build Jun 11 2020 13:42:08) complex

 executed on             LinuxIFC date 2021.11.22  15:07:56

 INCAR:
 POTCAR:    PAW_PBE Cu 22Jun2005
 POTCAR:    PAW_PBE N 08Apr2002
 POTCAR:    PAW_PBE O 08Apr2002

 POTCAR:    PAW_PBE Cu 22Jun2005
   VRHFIN =Cu: d10 p1

   TITEL  = PAW_PBE Cu 22Jun2005
   POMASS =   63.546; ZVAL   =   11.000    mass and valenz
   ENMAX  =  295.446; ENMIN  =  221.585 eV

 POTCAR:    PAW_PBE N 08Apr2002
   VRHFIN =N: s2p3

   TITEL  = PAW_PBE N 08Apr2002
   POMASS =   14.001; ZVAL   =    5.000    mass and valenz
   ENMAX  =  400.000; ENMIN  =  300.000 eV

 POTCAR:    PAW_PBE O 08Apr2002
   VRHFIN =O: s2p4

   TITEL  = PAW_PBE O 08Apr2002
   POMASS =   16.000; ZVAL   =    6.000    mass and valenz
   ENMAX  =  400.000; ENMIN  =  300.000 eV

 Optimization of the real space projectors (new method)

 maximal supplied QI-value         = 16.25
 optimisation between [QCUT,QGAM] = [ 10.24, 20.48] = [ 29.35,117.42] Ry
 Optimized for a Real-space Cutoff    1.55 Angstroem

   l    n(q)    QCUT    max X(q) W(low)/X(q) W(high)/X(q)  e(spline)
   2      9    10.239     4.610    0.85E-04    0.29E-03    0.14E-06
   2      9    10.239     8.522    0.15E-03    0.50E-03    0.27E-06
   0     10    10.239    51.609    0.45E-04    0.99E-04    0.10E-06
   0     10    10.239    27.747    0.40E-04    0.93E-04    0.97E-07
   1      9    10.239    20.408    0.15E-03    0.78E-05    0.15E-06
   1      9    10.239    13.425    0.13E-03    0.71E-05    0.14E-06
 Optimization of the real space projectors (new method)

[...]

   l    n(q)    QCUT    max X(q) W(low)/X(q) W(high)/X(q)  e(spline)
   0     10    10.053    79.467    0.61E-04    0.98E-04    0.61E-06
   0     10    10.053    66.151    0.60E-04    0.98E-04    0.61E-06
   1     10    10.053     8.350    0.17E-03    0.71E-03    0.45E-05
   1     10    10.053     5.531    0.18E-03    0.77E-03    0.49E-05
 Optimization of the real space projectors (new method)

 maximal supplied QI-value         = 24.76
 optimisation between [QCUT,QGAM] = [ 10.15, 20.30] = [ 28.85,115.39] Ry
 Optimized for a Real-space Cutoff    1.51 Angstroem

   l    n(q)    QCUT    max X(q) W(low)/X(q) W(high)/X(q)  e(spline)
   0      9    10.150    20.381    0.17E-03    0.18E-03    0.41E-06
   0      9    10.150    15.268    0.18E-03    0.20E-03    0.43E-06
   1      9    10.150     5.964    0.16E-03    0.20E-03    0.36E-06
   1      9    10.150     5.382    0.13E-03    0.16E-03    0.33E-06
  PAW_PBE Cu 22Jun2005                  :
  PAW_PBE N 08Apr2002                   :
  PAW_PBE O 08Apr2002                   :

 POSCAR: Cu N O
  positions in direct lattice
  velocities in cartesian coordinates
 exchange correlation table for  LEXCH =        8
   RHO(1)=    0.500       N(1)  =     2000
   RHO(2)=  100.500       N(2)  =     4000

 VTST: version 3.1, (03/28/14)

 CHAIN: initializing optimizer

 OPT: Using VASP QUASI-newton optimizer
 CHAIN: Read ICHAIN            0
 CHAIN: Running the NEB
 NEB:          SPRING     -5.000000
 NEB:          LCLIMB      T
 NEB:     LTANGENTOLD      F
 NEB:           LDNEB      F
 NEB:        LDNEBORG      F
 NEB:        LNEBCELL      F
 NEB:          EFIRST   -255.377738
 NEB:           ELAST   -255.189065

 POSCAR: Cu N O
  positions in direct lattice

 POSCAR: Cu N O
  positions in direct lattice

 ion  position               nearest neighbor table
   1  0.125  0.125  0.410-  22 2.51  18 2.52  17 2.52  13 2.52   4 2.52   5 2.52   2 2.52  21 2.52

   2  0.125  0.375  0.410-  22 2.51  23 2.51  18 2.52  19 2.52  14 2.52   6 2.52   3 2.52   1 2.52

[...]

  17  1.000  1.000  0.470-  16 2.52  13 2.52   4 2.52  20 2.52   1 2.52  18 2.52  29 2.53  21 2.53
                            45 2.54  33 2.55  36 2.55  48 2.55
  18  1.000  0.250  0.470-  14 2.52   2 2.52  13 2.52   1 2.52  22 2.52  19 2.52  17 2.52  30 2.52
                            46 2.54  33 2.55  45 2.55  34 2.55
  19  1.000  0.500  0.470-  15 2.52  14 2.52   3 2.52   2 2.52  23 2.52  18 2.52  20 2.52  31 2.52
                            46 2.54  47 2.55  35 2.55  34 2.55
  20  1.000  0.750  0.470-  16 2.52   4 2.52  15 2.52  17 2.52   3 2.52  19 2.52  32 2.53  24 2.53
                            47 2.54  35 2.54  48 2.55  36 2.55
  21  0.250  0.000  0.470-  25 2.52   5 2.52  22 2.52   8 2.52   1 2.52  24 2.52   4 2.52  17 2.53
                            40 2.54  33 2.54  36 2.55  37 2.56
  22  0.250  0.250  0.469-   1 2.51   5 2.51   2 2.51   6 2.52  21 2.52  18 2.52  26 2.52  23 2.53
                            38 2.53  33 2.55  34 2.55  37 2.55
  23  0.250  0.500  0.469-   3 2.51   7 2.51   2 2.51   6 2.52  24 2.52  19 2.52  27 2.52  22 2.53
                            38 2.53  35 2.55  34 2.55  39 2.56
  24  0.250  0.750  0.470-  28 2.52   8 2.52   7 2.52  23 2.52   4 2.52  21 2.52   3 2.52  20 2.53
                            35 2.54  40 2.54  36 2.55  39 2.56
  25  0.500  0.000  0.470-  29 2.52  21 2.52  26 2.52  12 2.52   8 2.52   9 2.52   5 2.52  28 2.52
                            40 2.54  44 2.54  41 2.55  37 2.56
  26  0.500  0.250  0.470-   9 2.52   5 2.52  10 2.52  30 2.52   6 2.52  25 2.52  22 2.52  27 2.53
                            38 2.53  42 2.54  37 2.54  41 2.54
  27  0.500  0.500  0.470-  11 2.52   7 2.52  31 2.52  10 2.52   6 2.52  28 2.52  23 2.52  26 2.53
                            38 2.53  42 2.54  39 2.54  43 2.54
  28  0.500  0.750  0.470-  32 2.52  24 2.52  27 2.52   8 2.52  12 2.52  25 2.52   7 2.52  11 2.52
                            44 2.54  40 2.54  43 2.55  39 2.55
  29  0.750  0.000  0.470-  25 2.52   9 2.52  12 2.52  30 2.52  13 2.52  32 2.52  16 2.52  17 2.53
                            45 2.54  44 2.54  48 2.55  41 2.56
  30  0.750  0.250  0.470-  10 2.52   9 2.52  26 2.52  14 2.52  13 2.52  29 2.52  31 2.52  18 2.52
                            46 2.54  45 2.55  41 2.55  42 2.55
  31  0.750  0.500  0.470-  10 2.52  11 2.52  27 2.52  14 2.52  15 2.52  30 2.52  32 2.52  19 2.52
                            46 2.54  47 2.55  42 2.55  43 2.55
  32  0.750  0.750  0.470-  28 2.52  11 2.52  12 2.52  31 2.52  15 2.52  16 2.52  29 2.52  20 2.53
                            47 2.54  44 2.54  48 2.55  43 2.56
  33  0.125  0.125  0.530-  54 2.51  36 2.52  49 2.52  53 2.52  50 2.52  45 2.52  34 2.53  37 2.53
                            21 2.54  17 2.55  18 2.55  22 2.55
  34  0.126  0.375  0.530-  54 2.51  55 2.51  38 2.51  51 2.52  50 2.52  35 2.53  33 2.53  46 2.53
                            23 2.55  19 2.55  22 2.55  18 2.55
  35  0.125  0.625  0.530-  55 2.51  36 2.52  52 2.52  56 2.52  51 2.52  47 2.52  34 2.53  39 2.53
                            24 2.54  20 2.54  19 2.55  23 2.55
  36  0.125  0.875  0.530-  56 2.52  53 2.52  49 2.52  52 2.52  33 2.52  35 2.52  40 2.52  48 2.53
                            21 2.55  24 2.55  17 2.55  20 2.55
  37  0.376  0.127  0.531-  41 2.50  38 2.51  54 2.51  57 2.52  53 2.53  33 2.53  40 2.54  26 2.54
                            58 2.55  22 2.55  25 2.56  21 2.56
  38  0.375  0.375  0.529-  37 2.51  39 2.51  42 2.51  34 2.51  23 2.53  22 2.53  27 2.53  26 2.53
                            55 2.55  54 2.55  58 2.64  59 2.64
  39  0.376  0.624  0.531-  43 2.50  38 2.51  55 2.51  60 2.53  56 2.53  35 2.53  40 2.54  27 2.54
                            59 2.55  28 2.55  23 2.56  24 2.56
  40  0.375  0.875  0.530-  60 2.52  53 2.52  57 2.52  56 2.52  36 2.52  44 2.52  39 2.54  37 2.54
                            21 2.54  24 2.54  25 2.54  28 2.54
  41  0.624  0.126  0.531-  37 2.50  62 2.51  42 2.51  57 2.52  61 2.52  58 2.53  45 2.54  44 2.54
                            26 2.54  30 2.55  25 2.55  29 2.56
  42  0.623  0.375  0.530-  38 2.51  41 2.51  43 2.51  63 2.53  62 2.53  27 2.54  26 2.54  46 2.54
                            31 2.55  30 2.55  58 2.59  59 2.59
  43  0.624  0.624  0.531-  39 2.50  63 2.51  42 2.51  60 2.52  64 2.52  59 2.53  47 2.53  44 2.54
                            27 2.54  28 2.55  31 2.55  32 2.56
  44  0.625  0.875  0.530-  60 2.52  57 2.52  61 2.52  64 2.52  40 2.52  48 2.52  43 2.54  41 2.54
                            29 2.54  32 2.54  25 2.54  28 2.54
  45  0.875  0.125  0.530-  62 2.51  48 2.52  49 2.52  50 2.52  61 2.52  33 2.52  46 2.53  41 2.54
                            29 2.54  17 2.54  18 2.55  30 2.55
  46  0.875  0.375  0.530-  63 2.51  62 2.51  50 2.52  51 2.52  47 2.53  45 2.53  34 2.53  42 2.54
                            31 2.54  19 2.54  18 2.54  30 2.54
  47  0.875  0.625  0.530-  63 2.51  48 2.52  52 2.52  51 2.52  64 2.52  35 2.52  46 2.53  43 2.53
                            32 2.54  20 2.54  19 2.55  31 2.55
  48  0.875  0.875  0.530-  61 2.52  64 2.52  49 2.52  52 2.52  45 2.52  47 2.52  44 2.52  36 2.53
                            29 2.55  32 2.55  17 2.55  20 2.55
  49  1.000  0.000  0.590-  48 2.52  36 2.52  45 2.52  33 2.52  50 2.52  53 2.52  61 2.53  52 2.53

[...]

  58  0.502  0.245  0.592-  65 1.93  57 2.49  62 2.52  41 2.53  37 2.55  54 2.56  42 2.59  59 2.62
                            38 2.64
  59  0.502  0.505  0.592-  65 1.93  60 2.49  63 2.52  43 2.53  39 2.55  55 2.56  42 2.59  58 2.62
                            38 2.64
  60  0.500  0.751  0.590-  59 2.49  57 2.50  44 2.52  40 2.52  56 2.52  64 2.52  43 2.52  39 2.53

[...]

  65  0.464  0.375  0.638-  66 1.21  58 1.93  59 1.93
  66  0.463  0.375  0.678-  65 1.21

  LATTYP: Found a simple tetragonal cell.
 ALAT       =    10.0912000000
 C/A-ratio  =     2.9728872681

  Lattice vectors:

 A1 = (  10.0912000000,   0.0000000000,   0.0000000000)
 A2 = (   0.0000000000,  10.0912000000,   0.0000000000)
 A3 = (   0.0000000000,   0.0000000000,  30.0000000000)

Analysis of symmetry for initial positions (statically):
 Subroutine PRICEL returns:
 Original cell was already a primitive cell.

 Routine SETGRP: Setting up the symmetry group for a
 simple tetragonal supercell.

 Subroutine GETGRP returns: Found  1 space group operations
 (whereof  1 operations were pure point group operations)
 out of a pool of 16 trial point group operations.

The static configuration has the point symmetry C_1 .

Analysis of symmetry for dynamics (positions and initial velocities):
 Subroutine PRICEL returns:
 Original cell was already a primitive cell.

[...]

The dynamic configuration has the point symmetry C_1 .

Analysis of constrained symmetry for selective dynamics:
 Subroutine PRICEL returns:
 Original cell was already a primitive cell.

[...]

The constrained configuration has the point symmetry C_1 .

Analysis of structural, dynamic, and magnetic symmetry:
 Subroutine PRICEL returns:
 Original cell was already a primitive cell.

 Routine SETGRP: Setting up the symmetry group for a
 simple tetragonal supercell.

 Subroutine GETGRP returns: Found  1 space group operations
 (whereof  1 operations were pure point group operations)
 out of a pool of 16 trial point group operations.

The magnetic configuration has the point symmetry C_1 .

 Subroutine INISYM returns: Found  1 space group operations
 (whereof  1 operations are pure point group operations),
 and found     1 'primitive' translations

 KPOINTS: K-Point Grid

Automatic generation of k-mesh.
Space group operators:
[...]
   0.129E+02 -.135E+02 -.123E+04   -.129E+02 0.135E+02 0.123E+04   -.583E-01 0.543E-01 0.313E+00   0.317E-04 -.127E-04 0.422E-04
   0.960E+01 0.322E-01 -.125E+04   -.957E+01 -.321E-01 0.125E+04   -.399E-01 -.123E-02 0.427E+00   -.483E-05 0.793E-04 -.119E-04
   0.114E+02 0.232E+02 -.123E+04   -.113E+02 -.230E+02 0.123E+04   -.105E+00 -.187E+00 0.353E+00   -.518E-04 0.177E-04 -.642E-04
   0.216E+01 0.134E+00 -.117E+04   -.206E+01 -.135E+00 0.117E+04   -.916E-01 -.409E-03 0.258E+00   -.439E-04 -.738E-04 -.611E-04
   0.114E+02 -.231E+02 -.123E+04   -.113E+02 0.229E+02 0.123E+04   -.104E+00 0.184E+00 0.354E+00   -.888E-05 0.490E-05 0.433E-04
   0.694E+01 -.300E-01 -.123E+04   -.699E+01 0.300E-01 0.123E+04   0.573E-01 -.124E-02 0.338E+00   -.593E-04 0.469E-04 -.532E-04
   -.185E+02 0.212E+02 -.124E+04   0.182E+02 -.209E+02 0.123E+04   0.284E+00 -.326E+00 0.218E+00   -.283E-04 0.265E-04 -.415E-05
   -.155E+02 0.157E+00 -.121E+04   0.152E+02 -.157E+00 0.121E+04   0.223E+00 -.734E-03 0.231E+00   -.131E-04 -.503E-04 -.126E-04
   -.185E+02 -.212E+02 -.123E+04   0.182E+02 0.208E+02 0.123E+04   0.284E+00 0.324E+00 0.218E+00   -.374E-04 -.766E-05 0.115E-03
   -.112E+02 -.564E-01 -.124E+04   0.113E+02 0.567E-01 0.124E+04   -.865E-01 -.924E-03 0.382E+00   -.120E-06 0.281E-04 -.197E-05
   -.678E+01 0.115E+02 -.124E+04   0.680E+01 -.115E+02 0.124E+04   -.198E-01 0.481E-01 0.435E+00   0.477E-04 -.957E-05 0.424E-05
   -.960E+01 0.966E-01 -.123E+04   0.954E+01 -.965E-01 0.123E+04   0.544E-01 -.648E-03 0.279E+00   0.124E-04 -.548E-04 -.419E-05
   -.683E+01 -.115E+02 -.124E+04   0.685E+01 0.115E+02 0.124E+04   -.202E-01 -.506E-01 0.435E+00   0.151E-04 0.205E-05 0.516E-04
   -.540E+01 0.141E-01 -.126E+04   0.536E+01 -.139E-01 0.126E+04   0.354E-01 -.860E-03 0.238E+00   0.616E-04 0.628E-04 0.471E-04
   0.479E+01 0.129E+02 -.382E+04   -.480E+01 -.129E+02 0.382E+04   0.635E-02 0.664E-01 0.357E+01   0.191E-04 0.250E-04 -.172E-03
   0.104E+02 0.130E+02 -.380E+04   -.104E+02 -.131E+02 0.380E+04   0.521E-01 0.604E-01 0.325E+01   0.572E-04 -.283E-04 -.145E-03
   0.104E+02 -.130E+02 -.380E+04   -.105E+02 0.130E+02 0.380E+04   0.519E-01 -.606E-01 0.324E+01   0.422E-04 -.326E-04 -.103E-03
   0.481E+01 -.130E+02 -.382E+04   -.482E+01 0.130E+02 0.382E+04   0.599E-02 -.664E-01 0.357E+01   0.645E-05 0.349E-04 -.129E-03
   0.285E+02 0.280E+02 -.380E+04   -.286E+02 -.281E+02 0.380E+04   0.139E+00 0.824E-01 0.350E+01   -.123E-04 0.903E-04 -.185E-03
   0.791E+02 0.402E+02 -.373E+04   -.803E+02 -.407E+02 0.373E+04   0.115E+01 0.525E+00 0.414E+01   0.317E-04 0.174E-04 -.927E-04
   0.793E+02 -.401E+02 -.373E+04   -.805E+02 0.406E+02 0.373E+04   0.115E+01 -.526E+00 0.414E+01   0.534E-04 -.521E-04 -.407E-04
   0.286E+02 -.282E+02 -.380E+04   -.287E+02 0.283E+02 0.380E+04   0.139E+00 -.829E-01 0.350E+01   0.520E-04 -.547E-04 -.132E-03
   -.490E+01 0.477E+02 -.379E+04   0.497E+01 -.480E+02 0.379E+04   -.671E-01 0.204E+00 0.337E+01   -.267E-04 0.524E-04 -.140E-03
   -.403E+02 0.138E+03 -.365E+04   0.409E+02 -.142E+03 0.365E+04   -.632E+00 0.346E+01 0.140E+01   -.536E-04 0.499E-04 -.439E-04
   -.403E+02 -.138E+03 -.365E+04   0.409E+02 0.141E+03 0.365E+04   -.631E+00 -.346E+01 0.140E+01   -.211E-04 0.186E-04 0.254E-04
   -.491E+01 -.482E+02 -.379E+04   0.498E+01 0.484E+02 0.379E+04   -.673E-01 -.199E+00 0.337E+01   -.107E-04 -.103E-03 -.829E-04
   -.282E+02 0.220E+02 -.381E+04   0.283E+02 -.221E+02 0.381E+04   -.621E-01 0.398E-01 0.351E+01   0.206E-04 0.310E-04 -.147E-03
   -.661E+02 0.240E+02 -.376E+04   0.665E+02 -.243E+02 0.375E+04   -.400E+00 0.334E+00 0.365E+01   -.571E-04 0.171E-04 -.108E-03
   -.662E+02 -.238E+02 -.376E+04   0.667E+02 0.242E+02 0.375E+04   -.403E+00 -.336E+00 0.365E+01   -.927E-04 -.203E-04 -.670E-04
   -.283E+02 -.222E+02 -.381E+04   0.284E+02 0.222E+02 0.381E+04   -.624E-01 -.402E-01 0.351E+01   -.468E-04 -.280E-04 -.109E-03
   0.270E+02 0.134E+00 -.196E+04   -.282E+02 -.156E+00 0.193E+04   0.113E+01 0.222E-01 0.274E+02   -.177E-04 -.317E-05 -.122E-03
   0.660E+01 -.156E+00 -.265E+04   -.721E+01 0.192E+00 0.271E+04   0.600E+00 -.385E-01 -.568E+02   -.893E-05 0.586E-05 0.151E-04
   -.238E+01 0.121E-01 0.331E+02   0.329E-12 -.147E-12 -.455E-11   0.238E+01 -.126E-01 -.331E+02   -.602E-04 0.136E-04 0.131E-02

 POSITION                                       TOTAL-FORCE (eV/Angst)
      1.26073      1.26136     12.31139        -0.004625     -0.010546     -0.021741
      1.26073      3.78420     12.31147        -0.005929      0.000854     -0.002280
      1.26073      6.30703     12.31140        -0.004531      0.011836     -0.021817
      1.26072      8.82979     12.31130         0.010478      0.001022      0.031327
      3.78351      1.26108     12.30967         0.010459      0.001770     -0.002348
      3.78347      3.78420     12.30963         0.025838      0.001080      0.012611
      3.78351      6.30731     12.30967         0.010534     -0.000229     -0.002188
      3.78357      8.82979     12.30993         0.004043      0.001122      0.005325
      6.30771      1.26108     12.30967        -0.009052      0.003549     -0.003987
      6.30775      3.78420     12.30962        -0.025023      0.001020      0.011584
      6.30771      6.30731     12.30967        -0.009138     -0.002270     -0.003790
      6.30764      8.82979     12.30993        -0.001259      0.000989      0.004987
      8.83050      1.26135     12.31138        -0.001062     -0.000385      0.009447
      8.83052      3.78419     12.31145        -0.001448      0.000757      0.002573
      8.83050      6.30704     12.31138        -0.001193      0.001379      0.009309
      8.83050      8.82979     12.31130        -0.016864      0.000947      0.019526
     10.08955     10.08982     14.08915        -0.000409     -0.000851     -0.008457
     10.09074      2.52319     14.08912        -0.001133     -0.000128     -0.009049
     10.09076      5.04593     14.08897        -0.001083      0.000211     -0.008470
     10.08952      7.57050     14.08923        -0.000542      0.001150     -0.008830
      2.52651      0.00061     14.09279         0.002353      0.000840     -0.006274
      2.52197      2.52057     14.08178         0.000675     -0.000211     -0.007904
      2.52196      5.04872     14.08188         0.000473      0.001599     -0.009018
      2.52652      7.56880     14.09264         0.001523     -0.000654     -0.005810
      5.04561      0.00002     14.09135         0.000704     -0.000269     -0.006338
      5.04650      2.52061     14.08651         0.001182     -0.002067     -0.007300
      5.04650      5.04878     14.08650         0.001002      0.002443     -0.007213
      5.04559      7.56944     14.09149         0.000705      0.000763     -0.006811
      7.56414      0.00127     14.09331        -0.002970      0.000472     -0.006246
      7.56581      2.52345     14.08956        -0.002324     -0.000515     -0.008595
      7.56586      5.04563     14.08967        -0.003062      0.000775     -0.009274
      7.56411      7.56788     14.09315        -0.002080     -0.000013     -0.005730
      1.26229      1.26004     15.90285         0.001278      0.001100      0.008723
      1.26772      3.78523     15.90541        -0.001379     -0.001442      0.005694
      1.26225      6.31024     15.90287         0.001306     -0.003198      0.008598
      1.26211      8.83076     15.90958        -0.001683     -0.001019      0.006934
      3.79426      1.27888     15.91617        -0.004178     -0.010850      0.010729
      3.78001      3.78549     15.87805         0.006671     -0.000651      0.004671
      3.79398      6.29234     15.91594        -0.002710      0.007705      0.010559
      3.78337      8.83119     15.90575         0.000480     -0.001214      0.007731
      6.29391      1.27545     15.91972         0.007261     -0.007107      0.011889
      6.28811      3.78531     15.90684         0.011779     -0.000732      0.011669
      6.29414      6.29530     15.91942         0.006168      0.004684      0.011856
      6.30510      8.83093     15.90752         0.001895     -0.000547      0.008575
      8.82890      1.25953     15.90315         0.001533      0.000160      0.007655
      8.82895      3.78484     15.89993        -0.002295     -0.000530      0.007915
      8.82900      6.31014     15.90311         0.001392     -0.001285      0.007634
      8.82809      8.83045     15.91117         0.000655     -0.000474      0.008309
     10.09078      0.00275     17.68696        -0.000742      0.002117     -0.008679
     10.09007      2.52462     17.68209         0.002830      0.002047     -0.015721
     10.09016      5.04498     17.68213         0.002606     -0.001839     -0.016047
     10.09072      7.56684     17.68704        -0.000678     -0.001392     -0.009255
      2.52430     10.09053     17.68542         0.000220     -0.000574     -0.010631
      2.50713      2.51290     17.67970        -0.009879     -0.004673     -0.009927
      2.50729      5.05755     17.67973        -0.010596      0.005143     -0.010054
      2.52426      7.57109     17.68544         0.000248      0.000873     -0.010433
      5.04404     10.08099     17.69127        -0.000969     -0.008437     -0.002661
      5.06146      2.47506     17.77433        -0.000525     -0.002087      0.000959
      5.06149      5.09801     17.77353        -0.000448     -0.002154      0.003067
      5.04398      7.58189     17.69122        -0.000892      0.010351     -0.003587
      7.56540      0.00085     17.68678        -0.001885      0.000003     -0.006845
      7.58163      2.52074     17.67367         0.007271     -0.002834     -0.004737
      7.58164      5.04894     17.67346         0.007645      0.003153     -0.004306
      7.56527      7.56875     17.68673        -0.001743      0.000484     -0.006277
      4.67884      3.78691     19.14286         0.018978      0.000602      0.012960
      4.66809      3.78769     20.35309        -0.015858     -0.001825      0.035816
    total drift:                               -0.001167     -0.000505      0.042814

  FREE ENERGIE OF THE ION-ELECTRON SYSTEM (eV)
  free  energy   TOTEN  =      -255.18265812 eV

  energy  without entropy=     -255.19302288  energy(sigma->0) =     -255.18611304

 NEB: the previous image is higher in energy: F
 NEB: the next image is higher in energy    : F
 NEB: image is at an extrema
 NEB: diff energy (min, max):     0.008039    0.022998

 NEB: Tangent
     -0.00048     -0.00002     -0.00097
     -0.00052      0.00000     -0.00096
     -0.00047      0.00002     -0.00096
     -0.00045     -0.00000     -0.00100
     -0.00039     -0.00011     -0.00156
     -0.00042      0.00000     -0.00158
     -0.00039      0.00011     -0.00155
     -0.00035     -0.00000     -0.00146
      0.00007     -0.00006     -0.00137
      0.00005      0.00000     -0.00134
      0.00007      0.00006     -0.00136
      0.00008     -0.00000     -0.00135
     -0.00001      0.00002     -0.00083
     -0.00005      0.00000     -0.00077
     -0.00001     -0.00002     -0.00083
      0.00003      0.00000     -0.00089
      0.00120     -0.00176     -0.00467
     -0.00077     -0.00079     -0.00481
     -0.00079      0.00012     -0.00465
      0.00118      0.00114     -0.00479
      0.00228     -0.00007     -0.00172
      0.00403      0.00304      0.00501
      0.00400     -0.00385      0.00498
      0.00231     -0.00086     -0.00176
     -0.00063     -0.00111     -0.00182
     -0.00385      0.00083      0.00137
     -0.00379     -0.00186      0.00141
     -0.00060      0.00008     -0.00183
     -0.00301     -0.00066     -0.00185
     -0.00042     -0.00203     -0.00806
     -0.00043      0.00129     -0.00803
     -0.00304     -0.00015     -0.00180
     -0.00628     -0.00713     -0.01058
     -0.01282     -0.00098     -0.01467
     -0.00633      0.00547     -0.01068
     -0.00014     -0.00085     -0.00205
      0.00372     -0.00427      0.00250
      0.01561     -0.00109      0.03963
      0.00390      0.00191      0.00259
      0.00170     -0.00119      0.00054
     -0.00363      0.00326     -0.00267
      0.01183     -0.00112     -0.01766
     -0.00380     -0.00548     -0.00239
      0.00061     -0.00102     -0.00258
     -0.00176     -0.00391     -0.00765
     -0.00759     -0.00053     -0.00314
     -0.00179      0.00263     -0.00752
     -0.00052     -0.00064     -0.00415
     -0.00040      0.00002     -0.00283
     -0.00407     -0.00090     -0.00831
     -0.00406     -0.00016     -0.00820
     -0.00035     -0.00106     -0.00285
      0.00030      0.00019     -0.00153
     -0.01506      0.00007     -0.02974
     -0.01540     -0.00152     -0.03015
      0.00039     -0.00187     -0.00154
      0.00164     -0.00569      0.00281
     -0.03175     -0.01912      0.02044
     -0.03212      0.01622      0.02121
      0.00173      0.00332      0.00289
     -0.00043     -0.00188     -0.00378
      0.00297     -0.00907     -0.00826
      0.00278      0.00776     -0.00799
     -0.00040      0.00069     -0.00374
      0.70824     -0.00242      0.12327
      0.67811     -0.00339      0.11446

 NEB: forces: par spring, perp REAL, dneb     0.005998    0.081847    0.000000
 NEB: distance to prev, next image, angle between     0.450014    0.448815  166.931772
 NEB: projections on to tangent (spring, REAL)    -0.005998    0.009970

 stress matrix after NEB project (eV)
    -24.30673      0.00021      0.05635
      0.00021    -24.62992     -0.05325
      0.05635     -0.05325     -5.11064
  FORCES: max atom, RMS     0.044618    0.010149
  FORCE total and by dimension    0.082452    0.033534
  Stress total and by dimension   34.979720   24.629922
 Quasi-Newton relaxation of ions (Broydens 2nd method)
  g(Force)  = 0.760E-03   g(Stress)= 0.000E+00

 Reset! Starting new Quasi-Newton update for ions

 reached required accuracy - stopping structural energy minimisation

 total charge

[...]

 magnetization (x)

# of ion       s       p       d       tot
    1       -0.000  -0.000   0.000   0.000
    2       -0.000  -0.000   0.000   0.000
    3       -0.000  -0.000   0.000   0.000
    4       -0.000  -0.000   0.000   0.000
    5       -0.000  -0.000   0.000   0.000
    6       -0.000  -0.000   0.000   0.000
    7       -0.000  -0.000   0.000   0.000
    8       -0.000  -0.000   0.000   0.000
    9       -0.000  -0.000   0.000   0.000
   10       -0.000  -0.000   0.000   0.000
   11       -0.000  -0.000   0.000   0.000
   12       -0.000  -0.000   0.000   0.000
   13       -0.000  -0.000   0.000   0.000
   14       -0.000  -0.000   0.000   0.000
   15       -0.000  -0.000   0.000   0.000
   16       -0.000  -0.000   0.000   0.000
   17       -0.000  -0.000   0.000   0.000
   18       -0.000  -0.000   0.000   0.000
   19       -0.000  -0.000   0.000  -0.000
   20       -0.000  -0.000   0.000   0.000
   21       -0.000  -0.000   0.000   0.000
   22       -0.000  -0.000   0.000   0.000
   23       -0.000  -0.000   0.000   0.000
   24       -0.000  -0.000   0.000   0.000
   25       -0.000  -0.000   0.000   0.000
   26       -0.000  -0.000   0.000   0.000
   27       -0.000  -0.000   0.000   0.000
   28       -0.000  -0.000   0.000   0.000
   29       -0.000  -0.000   0.000   0.000
   30       -0.000  -0.000   0.000   0.000
   31       -0.000  -0.000   0.000   0.000
   32       -0.000  -0.000   0.000   0.000
   33        0.000   0.000  -0.000  -0.000
   34        0.000   0.000  -0.000   0.000
   35        0.000   0.000  -0.000  -0.000
   36        0.000   0.000  -0.000  -0.000
   37        0.000   0.000  -0.000   0.000
   38        0.000   0.000  -0.000   0.000
   39        0.000   0.000  -0.000   0.000
   40        0.000   0.000  -0.000   0.000
   41        0.000   0.000  -0.000   0.000
   42        0.000   0.000  -0.000   0.000
   43        0.000   0.000  -0.000   0.000
   44        0.000   0.000  -0.000   0.000
   45        0.000   0.000  -0.000   0.000
   46        0.000   0.000  -0.000   0.000
   47        0.000   0.000  -0.000   0.000
   48        0.000   0.000  -0.000  -0.000
   49        0.000   0.000  -0.000  -0.000
   50        0.000   0.000  -0.000  -0.000
   51        0.000   0.000  -0.000  -0.000
   52        0.000   0.000  -0.000  -0.000
   53        0.000   0.000  -0.000  -0.000
   54       -0.000   0.000  -0.000  -0.000
   55       -0.000   0.000  -0.000  -0.000
   56        0.000   0.000  -0.000  -0.000
   57        0.000   0.000  -0.000  -0.000
   58        0.000   0.000  -0.000  -0.000
   59        0.000   0.000  -0.000  -0.000
   60        0.000   0.000  -0.000  -0.000
   61        0.000   0.000  -0.000  -0.000
   62        0.000   0.000  -0.000  -0.000
   63        0.000   0.000  -0.000  -0.000
   64        0.000   0.000  -0.000  -0.000
   65        0.000   0.000   0.000   0.000
   66        0.000   0.000   0.000   0.000
tot          0.000   0.000   0.000   0.000