 vasp.5.4.4.18Apr17-6-g9f103f2a35 (build Jun 11 2020 13:42:08) complex

 executed on             LinuxIFC date 2022.03.18  15:52:38

 INCAR:
 POTCAR:    PAW_PBE N 08Apr2002
 POTCAR:    PAW_PBE O 08Apr2002
 POTCAR:    PAW_PBE Pd 04Jan2005

 POTCAR:    PAW_PBE N 08Apr2002
   VRHFIN =N: s2p3

   TITEL  = PAW_PBE N 08Apr2002
   POMASS =   14.001; ZVAL   =    5.000    mass and valenz
   ENMAX  =  400.000; ENMIN  =  300.000 eV

 POTCAR:    PAW_PBE O 08Apr2002
   VRHFIN =O: s2p4

   TITEL  = PAW_PBE O 08Apr2002
   POMASS =   16.000; ZVAL   =    6.000    mass and valenz
   ENMAX  =  400.000; ENMIN  =  300.000 eV

 POTCAR:    PAW_PBE Pd 04Jan2005
   VRHFIN =Pd : s1 d9

   TITEL  = PAW_PBE Pd 04Jan2005
   POMASS =  106.420; ZVAL   =   10.000    mass and valenz
   ENMAX  =  250.925; ENMIN  =  188.194 eV

 Optimization of the real space projectors (new method)

 maximal supplied QI-value         = 25.13
 optimisation between [QCUT,QGAM] = [ 10.05, 20.36] = [ 28.30,116.06] Ry
 Optimized for a Real-space Cutoff    1.70 Angstroem

   l    n(q)    QCUT    max X(q) W(low)/X(q) W(high)/X(q)  e(spline)
   0     10    10.053    79.467    0.61E-04    0.98E-04    0.61E-06
   0     10    10.053    66.151    0.60E-04    0.98E-04    0.61E-06
   1     10    10.053     8.350    0.17E-03    0.71E-03    0.45E-05
   1     10    10.053     5.531    0.18E-03    0.77E-03    0.49E-05
 Optimization of the real space projectors (new method)

[...]

   l    n(q)    QCUT    max X(q) W(low)/X(q) W(high)/X(q)  e(spline)
   0      9    10.150    20.381    0.17E-03    0.18E-03    0.41E-06
   0      9    10.150    15.268    0.18E-03    0.20E-03    0.43E-06
   1      9    10.150     5.964    0.16E-03    0.20E-03    0.36E-06
   1      9    10.150     5.382    0.13E-03    0.16E-03    0.33E-06
 Optimization of the real space projectors (new method)

 maximal supplied QI-value         = 14.36
 optimisation between [QCUT,QGAM] = [ 10.20, 20.39] = [ 29.12,116.47] Ry
 Optimized for a Real-space Cutoff    1.55 Angstroem

   l    n(q)    QCUT    max X(q) W(low)/X(q) W(high)/X(q)  e(spline)
   2      9    10.197    59.108    0.12E-03    0.40E-04    0.11E-06
   2      9    10.197    58.101    0.12E-03    0.39E-04    0.12E-06
   0      9    10.197   102.235    0.41E-04    0.86E-05    0.83E-07
   0      9    10.197    58.388    0.37E-04    0.79E-05    0.78E-07
   1      9    10.197    22.191    0.25E-03    0.13E-03    0.84E-07
   1      9    10.197    15.590    0.21E-03    0.11E-03    0.74E-07
  PAW_PBE N 08Apr2002                   :
  PAW_PBE O 08Apr2002                   :
  PAW_PBE Pd 04Jan2005                  :

 POSCAR: N O Pd
  positions in direct lattice
  velocities in cartesian coordinates
 exchange correlation table for  LEXCH =        8
   RHO(1)=    0.500       N(1)  =     2000
   RHO(2)=  100.500       N(2)  =     4000

 VTST: version 3.1, (03/28/14)

 CHAIN: initializing optimizer

 OPT: Using VASP QUASI-newton optimizer
 CHAIN: Read ICHAIN            0
 CHAIN: Running the NEB
 NEB:          SPRING     -5.000000
 NEB:          LCLIMB      T
 NEB:     LTANGENTOLD      F
 NEB:           LDNEB      F
 NEB:        LDNEBORG      F
 NEB:        LNEBCELL      F
 NEB:          EFIRST   -487.201058
 NEB:           ELAST   -487.434358

 POSCAR: N O Pd
  positions in direct lattice

 POSCAR: N O Pd
  positions in direct lattice

 ion  position               nearest neighbor table
   1  0.365  0.275  0.640-  75 1.87  79 1.89
   2  0.374  0.005  0.651-  12 1.19  78 1.99  74 1.99
   3  0.315  0.438  0.664-  13 1.19  76 2.07
   4  0.745  0.378  0.651-  14 1.19  84 1.98  83 1.99
   5  0.653  0.095  0.645-  15 1.21  82 2.02  78 2.23  83 2.24
   6  0.650  0.654  0.643-  16 1.21  85 2.04  81 2.22  84 2.25
   7  0.007  0.375  0.651-  17 1.19  72 1.98  71 1.99
   8  0.093  0.091  0.645-  18 1.20  70 2.01  74 2.24  71 2.27
   9  0.095  0.656  0.645-  19 1.21  73 2.02  77 2.23  72 2.23
  10  0.872  0.873  0.641-  20 1.21  85 2.21  73 2.25  82 2.25  70 2.25
  11  0.375  0.752  0.649-  21 1.19  77 1.98  81 1.99
  12  0.373  0.017  0.690-   2 1.19
  13  0.396  0.485  0.684-   3 1.19
  14  0.714  0.381  0.689-   4 1.19
  15  0.659  0.088  0.685-   5 1.21
  16  0.652  0.658  0.683-   6 1.21
  17  0.033  0.375  0.689-   7 1.19
  18  0.086  0.085  0.685-   8 1.20
  19  0.089  0.663  0.685-   9 1.21
  20  0.872  0.873  0.681-  10 1.21
  21  0.377  0.736  0.689-  11 1.19
  22  0.125  0.125  0.403-  43 2.74  25 2.74  23 2.75  34 2.75  26 2.75  38 2.75  42 2.77  39 2.78

  23  0.125  0.375  0.403-  35 2.75  44 2.75  22 2.75  27 2.75  24 2.75  43 2.75  40 2.77  39 2.77

[...]

  37  0.875  0.875  0.403-  34 2.75  25 2.75  33 2.75  36 2.75  53 2.75  38 2.75  41 2.77  50 2.77

  38  1.000  0.000  0.468-  69 2.74  34 2.75  42 2.75  54 2.75  39 2.75  22 2.75  37 2.75  50 2.75
                            25 2.76  41 2.76  57 2.79  66 2.81
  39  0.998  0.251  0.468-  51 2.72  40 2.73  55 2.74  43 2.75  38 2.75  66 2.75  35 2.75  34 2.76
                            54 2.77  23 2.77  22 2.78  67 2.85
  40  0.999  0.499  0.468-  52 2.71  55 2.72  39 2.73  44 2.74  68 2.74  41 2.75  35 2.76  36 2.77
                            23 2.77  24 2.77  56 2.79  67 2.85
  41  0.001  0.749  0.468-  45 2.74  40 2.75  24 2.75  53 2.75  69 2.75  38 2.76  25 2.76  36 2.76
                            37 2.77  68 2.78  57 2.78  56 2.78
  42  0.250  0.999  0.468-  45 2.71  58 2.72  46 2.74  57 2.75  43 2.75  38 2.75  25 2.76  29 2.76
                            22 2.77  26 2.77  54 2.78  61 2.84
  43  0.249  0.249  0.468-  59 2.72  22 2.74  39 2.75  42 2.75  23 2.75  26 2.75  58 2.76  27 2.76
                            55 2.76  47 2.77  44 2.77  54 2.79
  44  0.249  0.502  0.467-  59 2.70  24 2.73  40 2.74  28 2.74  23 2.75  45 2.75  60 2.76  27 2.76
                            55 2.77  43 2.77  48 2.78  56 2.78
  45  0.250  0.752  0.468-  60 2.70  42 2.71  49 2.74  41 2.74  57 2.74  44 2.75  29 2.76  25 2.76
                            28 2.78  24 2.78  56 2.79  61 2.84
  46  0.499  1.000  0.468-  58 2.71  49 2.71  65 2.73  42 2.74  47 2.74  50 2.74  29 2.76  26 2.76
                            33 2.77  30 2.77  62 2.80  61 2.85
  47  0.501  0.249  0.467-  59 2.72  30 2.74  46 2.74  31 2.75  26 2.75  51 2.75  27 2.75  58 2.76
                            63 2.76  43 2.77  48 2.78  62 2.78
  48  0.502  0.502  0.467-  59 2.70  32 2.72  28 2.74  31 2.75  49 2.75  52 2.75  63 2.77  27 2.77
                            60 2.77  47 2.78  64 2.78  44 2.78
  49  0.499  0.753  0.468-  46 2.71  60 2.72  45 2.74  29 2.74  65 2.75  48 2.75  33 2.75  53 2.76
                            64 2.76  28 2.77  32 2.78  61 2.84
  50  0.749  0.002  0.468-  51 2.74  46 2.74  30 2.74  69 2.75  38 2.75  53 2.75  34 2.75  33 2.76
                            37 2.77  65 2.77  62 2.79  66 2.79
  51  0.751  0.251  0.468-  63 2.70  39 2.72  52 2.73  66 2.74  50 2.74  47 2.75  35 2.76  34 2.77
                            31 2.77  30 2.78  62 2.78  67 2.85
  52  0.753  0.500  0.468-  40 2.71  63 2.73  51 2.73  35 2.74  36 2.75  68 2.75  48 2.75  53 2.76
                            64 2.76  31 2.77  32 2.78  67 2.85
  53  0.750  0.751  0.468-  64 2.71  69 2.74  37 2.75  41 2.75  33 2.75  50 2.75  52 2.76  49 2.76
                            36 2.76  32 2.76  65 2.80  68 2.80
  54  0.122  0.123  0.534-  75 2.70  66 2.73  57 2.73  38 2.75  39 2.77  55 2.77  42 2.78  58 2.78
                            43 2.79  70 2.82  74 2.82  71 2.82
  55  0.123  0.376  0.533-  75 2.69  40 2.72  67 2.73  56 2.73  39 2.74  43 2.76  44 2.77  59 2.77
                            54 2.77  76 2.88  72 2.88  71 2.92
  56  0.125  0.625  0.535-  68 2.73  60 2.73  55 2.73  57 2.75  77 2.78  41 2.78  44 2.78  40 2.79
                            72 2.79  45 2.79  73 2.81  76 2.87
  57  0.127  0.875  0.534-  61 2.72  54 2.73  45 2.74  56 2.75  42 2.75  69 2.78  41 2.78  38 2.79
                            73 2.80  70 2.80  74 2.86  77 2.87
  58  0.375  0.122  0.532-  46 2.71  61 2.71  42 2.72  62 2.74  75 2.75  43 2.76  47 2.76  54 2.78
                            59 2.81  79 2.85  78 2.88  74 2.93
  59  0.375  0.378  0.530-  44 2.70  48 2.70  47 2.72  43 2.72  80 2.74  60 2.75  55 2.77  79 2.77
                            75 2.78  63 2.78  76 2.79  58 2.81
  60  0.374  0.629  0.532-  45 2.70  80 2.71  61 2.72  49 2.72  56 2.73  59 2.75  44 2.76  48 2.77
                            64 2.81  76 2.82  77 2.89  81 2.90
  61  0.374  0.876  0.538-  58 2.71  57 2.72  60 2.72  65 2.72  81 2.83  42 2.84  45 2.84  49 2.84
                            46 2.85  74 2.86  77 2.87  78 2.88
  62  0.625  0.127  0.535-  63 2.73  65 2.73  66 2.74  58 2.74  47 2.78  51 2.78  50 2.79  78 2.79
                            46 2.80  83 2.80  82 2.80  79 2.82
  63  0.628  0.375  0.532-  80 2.70  51 2.70  67 2.72  62 2.73  52 2.73  47 2.76  48 2.77  79 2.77
                            59 2.78  64 2.80  83 2.90  84 2.92
  64  0.629  0.629  0.533-  80 2.67  53 2.71  68 2.72  65 2.73  49 2.76  52 2.76  48 2.78  85 2.80
                            63 2.80  60 2.81  81 2.84  84 2.85
  65  0.621  0.878  0.534-  61 2.72  64 2.73  46 2.73  62 2.73  49 2.75  50 2.77  69 2.78  82 2.79
                            53 2.80  85 2.81  81 2.84  78 2.89
  66  0.874  0.129  0.534-  67 2.71  54 2.73  62 2.74  51 2.74  39 2.75  69 2.78  50 2.79  70 2.80
                            82 2.80  38 2.81  71 2.86  83 2.89
  67  0.876  0.375  0.538-  66 2.71  68 2.71  63 2.72  55 2.73  84 2.84  39 2.85  40 2.85  51 2.85
                            52 2.85  71 2.86  72 2.88  83 2.88
  68  0.877  0.622  0.534-  67 2.71  64 2.72  56 2.73  40 2.74  52 2.75  41 2.78  73 2.79  69 2.79
                            53 2.80  85 2.81  84 2.86  72 2.89
  69  0.875  0.876  0.532-  53 2.74  38 2.74  50 2.75  41 2.75  70 2.76  85 2.77  57 2.78  65 2.78
                            66 2.78  73 2.79  68 2.79  82 2.79
  70  0.994  0.996  0.600-   8 2.01  10 2.25  73 2.67  82 2.67  74 2.72  71 2.73  69 2.76  66 2.80
                            57 2.80  54 2.82
  71  0.005  0.243  0.605-   7 1.99   8 2.27  75 2.69  70 2.73  54 2.82  67 2.86  66 2.86  72 2.88
                            83 2.91  55 2.92
  72  0.010  0.506  0.605-   7 1.98   9 2.23  73 2.73  76 2.77  56 2.79  67 2.88  71 2.88  55 2.88
                            68 2.89  84 2.91
  73  0.996  0.753  0.600-   9 2.02  10 2.25  70 2.67  85 2.67  77 2.72  72 2.73  68 2.79  69 2.79
                            57 2.80  56 2.81
  74  0.242  0.005  0.605-   2 1.99   8 2.24  70 2.72  75 2.72  54 2.82  57 2.86  61 2.86  78 2.89
                            77 2.89  58 2.93
  75  0.248  0.252  0.595-   1 1.87  71 2.69  76 2.69  55 2.69  54 2.70  79 2.72  74 2.72  58 2.75
                            59 2.78
  76  0.262  0.496  0.601-   3 2.07  80 2.66  75 2.69  77 2.71  72 2.77  59 2.79  60 2.82  56 2.87
                            55 2.88
  77  0.243  0.742  0.605-  11 1.98   9 2.23  76 2.71  73 2.72  56 2.78  57 2.87  61 2.87  81 2.89
                            60 2.89  74 2.89
  78  0.505  0.010  0.605-   2 1.99   5 2.23  82 2.72  79 2.77  62 2.79  61 2.88  58 2.88  74 2.89
                            65 2.89  81 2.89
[...]
   0.294E+02 -.480E+01 -.241E+03   -.294E+02 0.460E+01 0.241E+03   0.307E-01 0.209E+00 0.620E+00   -.128E-02 -.506E-03 -.350E-02
   0.432E+01 0.469E+01 -.266E+03   -.441E+01 -.465E+01 0.266E+03   0.935E-01 -.449E-01 -.131E-01   -.160E-02 -.668E-03 -.268E-02
   -.140E+02 -.212E+01 -.267E+03   0.141E+02 0.214E+01 0.267E+03   -.162E+00 -.282E-01 0.157E+00   -.188E-02 0.483E-03 -.228E-02
   -.404E+01 0.188E+02 -.228E+03   0.407E+01 -.191E+02 0.227E+03   -.327E-01 0.305E+00 0.102E+01   0.381E-03 0.136E-02 -.300E-02
   0.130E+01 0.835E+01 -.145E+03   -.126E+01 -.809E+01 0.144E+03   -.445E-01 -.271E+00 0.542E+00   0.537E-03 -.765E-03 -.366E-02
   0.270E+01 -.222E+02 -.214E+03   -.282E+01 0.222E+02 0.214E+03   0.121E+00 0.313E-01 0.586E+00   0.172E-04 -.123E-02 -.250E-02
[...]
   0.794E+02 -.585E+01 -.194E+04   -.792E+02 0.538E+01 0.194E+04   -.145E+00 0.475E+00 0.586E+00   -.625E-03 -.180E-03 -.185E-02
   0.134E+02 -.402E+01 -.186E+04   -.130E+02 0.364E+01 0.186E+04   -.399E+00 0.390E+00 0.159E+01   -.495E-03 0.127E-03 -.162E-02
   0.176E+02 0.596E+02 -.193E+04   -.173E+02 -.598E+02 0.193E+04   -.370E+00 0.192E+00 0.606E+00   -.794E-03 0.293E-03 -.105E-02
   0.741E+02 0.222E+02 -.176E+04   -.715E+02 -.212E+02 0.176E+04   -.260E+01 -.976E+00 -.224E+00   -.649E-03 -.328E-04 -.185E-02
   0.425E+02 -.147E+02 -.186E+04   -.413E+02 0.143E+02 0.185E+04   -.119E+01 0.369E+00 0.154E+01   -.615E-03 -.351E-03 -.135E-02
   0.243E+02 -.740E+02 -.191E+04   -.239E+02 0.738E+02 0.191E+04   -.453E+00 0.161E+00 0.570E+00   -.877E-03 0.538E-04 -.715E-03
   -.204E+02 0.499E+02 -.193E+04   0.201E+02 -.501E+02 0.193E+04   0.345E+00 0.201E+00 0.538E+00   0.727E-03 0.572E-03 -.990E-03
   -.920E+02 0.967E+01 -.188E+04   0.892E+02 -.821E+01 0.188E+04   0.281E+01 -.144E+01 -.113E+00   0.906E-03 -.269E-04 -.187E-02
   -.167E+02 0.228E+02 -.178E+04   0.165E+02 -.234E+02 0.178E+04   0.225E+00 0.541E+00 0.391E+01   0.758E-03 -.754E-03 -.157E-02
   -.248E+02 -.765E+02 -.190E+04   0.243E+02 0.764E+02 0.190E+04   0.462E+00 0.140E+00 0.568E+00   0.613E-03 0.349E-05 -.524E-03
   -.775E+01 -.467E+01 -.187E+04   0.736E+01 0.510E+01 0.187E+04   0.400E+00 -.447E+00 0.158E+01   0.771E-03 0.592E-03 -.192E-02
   -.687E+02 0.139E+02 -.196E+04   0.684E+02 -.134E+02 0.196E+04   0.343E+00 -.513E+00 0.789E+00   0.508E-03 -.120E-03 -.234E-02
   -.810E+02 -.546E+01 -.193E+04   0.807E+02 0.489E+01 0.193E+04   0.284E+00 0.563E+00 0.652E+00   0.588E-03 -.474E-03 -.188E-02
   -.761E+01 -.395E+00 -.186E+04   0.737E+01 0.145E+00 0.186E+04   0.230E+00 0.248E+00 0.159E+01   0.801E-03 0.798E-04 -.143E-02
   0.107E+02 0.725E+01 0.348E+03   -.464E-12 0.128E-12 0.523E-11   -.107E+02 -.725E+01 -.348E+03   0.202E-03 0.115E-05 -.152E+00

 POSITION                                       TOTAL-FORCE (eV/Angst)
      4.00893      3.02229     19.19667         0.001286      0.007813      0.002309
      4.10285      0.05260     19.51907        -0.004481     -0.010063      0.003212
      3.45505      4.80923     19.91769         0.003023     -0.022305     -0.007604
      8.18111      4.15116     19.52699        -0.001425     -0.007654      0.001398
      7.17545      1.04254     19.34592        -0.001616     -0.002764      0.000121
      7.13435      7.18059     19.28685        -0.003955     -0.015098     -0.007046
      0.07989      4.11712     19.52574         0.006640     -0.006093      0.005930
      1.01625      0.99697     19.34717        -0.004204     -0.002809     -0.000582
      1.04555      7.20541     19.33687         0.004666      0.000512      0.000196
      9.57888      9.58942     19.21908        -0.003180     -0.008751     -0.007289
      4.11999      8.25453     19.48330        -0.000157      0.003759      0.000471
      4.09877      0.19040     20.69996         0.000598     -0.002761     -0.005509
      4.35029      5.32421     20.50879        -0.012137     -0.000553      0.019381
      7.83805      4.18111     20.66880         0.006693     -0.002260     -0.009491
      7.24101      0.96911     20.54716         0.010165      0.005911      0.003610
      7.16441      7.22672     20.49157        -0.002582     -0.008452      0.003881
      0.36162      4.11421     20.68390         0.007442     -0.005169     -0.009878
      0.94981      0.92818     20.54769         0.004381      0.007295      0.001936
      0.98230      7.28078     20.53870         0.005038      0.000367      0.005984
      9.57477      9.58288     20.42921         0.001335     -0.002287      0.009434
      4.14108      8.08431     20.66250        -0.000075      0.003680     -0.003617
      1.37266      1.37257     12.08090        -0.024282     -0.001826     -0.009614
      1.37242      4.11772     12.08022        -0.050447     -0.007380      0.045501
      1.37267      6.86383     12.08000        -0.013088      0.020666     -0.034487
      1.37288      9.60959     12.08066         0.053532     -0.006928      0.047042
      4.11805      1.37253     12.08076        -0.013133     -0.047789      0.032241
      4.11808      4.11758     12.08002         0.004896      0.020899     -0.009624
      4.11802      6.86368     12.07963         0.004592      0.067486      0.029778
      4.11798      9.60957     12.08044        -0.009786      0.018009     -0.140761
      6.86378      1.37268     12.08060         0.017171      0.006350     -0.033817
      6.86395      4.11751     12.08007         0.063182      0.009189      0.048609
      6.86394      6.86343     12.07928         0.028371      0.040935      0.000908
      6.86377      9.60961     12.07981        -0.051131      0.029197      0.026035
      9.60938      1.37274     12.08074        -0.028179      0.093752      0.043532
      9.60936      4.11767     12.08034         0.009545     -0.009795     -0.145988
      9.60960      6.86359     12.07968         0.028293     -0.021768      0.008874
      9.60965      9.60964     12.08004        -0.023863     -0.025366      0.074677
     10.97834      0.00443     14.03187         0.002978     -0.002939     -0.000616
     10.96454      2.75459     14.05114         0.006273     -0.003717      0.005620
     10.97421      5.48348     14.04976         0.000966      0.002376      0.005109
      0.00819      8.22903     14.04031        -0.001651     -0.002844     -0.000627
      2.74529     10.96825     14.04863        -0.000532      0.003110      0.008962
      2.73019      2.73446     14.02994         0.001123      0.000445     -0.003774
      2.72963      5.50913     14.01861         0.004058     -0.008512      0.002132
      2.74592      8.25474     14.05076         0.000586      0.000650     -0.008928
      5.48221     10.97718     14.04670         0.000630      0.001438      0.002937
      5.50071      2.73811     14.02273        -0.006057     -0.000474     -0.001917
      5.51365      5.51584     14.01965         0.003553      0.001480      0.000139
      5.48120      8.26648     14.04311        -0.001518     -0.005695      0.000204
      8.22539      0.01657     14.03876        -0.002084     -0.001363      0.003586
      8.24904      2.75596     14.05491         0.003642     -0.001781     -0.012028
      8.26632      5.48697     14.04253        -0.007380     -0.004105     -0.002927
      8.23908      8.24411     14.03499        -0.002525     -0.006839      0.001380
      1.34115      1.35604     16.01385        -0.003729     -0.007901      0.006496
      1.35390      4.12753     15.98151        -0.004218     -0.000738     -0.008541
      1.37424      6.85975     16.04126        -0.002835     -0.002020      0.001224
      1.39645      9.60661     16.01783         0.002118     -0.006945     -0.004749
      4.12189      1.34370     15.96310        -0.000815      0.000137     -0.002822
      4.11936      4.15338     15.89234        -0.006477     -0.006756     -0.005519
      4.10336      6.90708     15.95811         0.001395     -0.004197     -0.006253
[...]
      0.05771      2.67090     18.15873        -0.001357      0.005236      0.003031
      0.11428      5.55198     18.15949        -0.000605      0.000755     -0.009406
     10.93677      8.26890     18.01181         0.000859     -0.005160      0.004031
      2.65581      0.05661     18.14836         0.002578     -0.002574     -0.001856
      2.72648      2.76375     17.85493         0.000574     -0.004744     -0.006166
      2.87680      5.44462     18.03400         0.002605      0.000803      0.004057
      2.66850      8.14799     18.13771         0.005410     -0.010049      0.005579
      5.54217      0.11516     18.15075         0.004895     -0.000842     -0.005186
      5.43855      2.87769     17.97045        -0.001828      0.001556      0.001183
      5.52919      5.52898     17.80380         0.003259      0.001144      0.002008
      5.55610      8.20643     18.11217        -0.000867     -0.002898      0.004171
      8.25546     10.95605     18.01813         0.003835     -0.004355      0.001233
      8.13190      2.69535     18.16770        -0.003536     -0.002263      0.004548
      8.19111      5.56620     18.13639         0.001494     -0.007340      0.003282
      8.27146      8.28587     18.00177        -0.008553     -0.008908      0.000249
    total drift:                               -0.001533      0.004208      0.018699

  FREE ENERGIE OF THE ION-ELECTRON SYSTEM (eV)
  free  energy   TOTEN  =      -486.54577618 eV

  energy  without entropy=     -486.39667582  energy(sigma->0) =     -486.49607606

 NEB: the previous image is higher in energy: F
 NEB: the next image is higher in energy    : F
 NEB: image is at an extrema
 NEB: diff energy (min, max):     0.158406    1.169258

 NEB: Tangent
     -0.16385      0.23088      0.13555
     -0.01985      0.01264     -0.00006
      0.52725     -0.58903     -0.13468
     -0.01894      0.02240      0.00964
     -0.02022      0.02905      0.00109
      0.02513      0.04851      0.01261
      0.01592     -0.05201      0.00506
     -0.01050     -0.01734     -0.00967
      0.07422     -0.11990     -0.00960
      0.03485     -0.01625      0.00307
      0.00128     -0.04140     -0.00710
     -0.03039     -0.01673      0.00205
      0.29822      0.02943     -0.10742
     -0.00667      0.04175      0.01249
     -0.00641      0.02307      0.00146
      0.02374      0.05129      0.01057
      0.05305     -0.05220     -0.00496
      0.00449      0.00150     -0.00810
      0.08229     -0.13150     -0.00784
      0.03329     -0.01735      0.00302
     -0.03066     -0.03828     -0.00914
     -0.00002      0.00008      0.00228
      0.00006      0.00019      0.00254
     -0.00001     -0.00004      0.00259
     -0.00008     -0.00012      0.00234
      0.00006      0.00008      0.00234
      0.00006      0.00025      0.00264
      0.00009      0.00002      0.00276
      0.00010     -0.00012      0.00245
     -0.00002      0.00005      0.00245
     -0.00010      0.00028      0.00268
     -0.00010      0.00010      0.00296
     -0.00003     -0.00014      0.00272
     -0.00011      0.00004      0.00239
     -0.00012      0.00022      0.00257
     -0.00021      0.00004      0.00277
     -0.00021     -0.00013      0.00261
     -0.00880     -0.01327     -0.00048
     -0.01920     -0.01718     -0.00273
     -0.00503     -0.00802     -0.00664
      0.00181     -0.00758      0.00567
     -0.00250     -0.00758      0.00234
     -0.00754     -0.01365     -0.00351
      0.00336     -0.00522     -0.00440
      0.00093      0.00068     -0.00510
     -0.00268      0.00563      0.00640
     -0.00638      0.00173      0.00151
      0.00394      0.00508     -0.00015
      0.00949      0.01251      0.00028
     -0.00736      0.00231      0.01120
     -0.01280     -0.00428      0.00929
     -0.00008     -0.00151      0.00273
      0.00959      0.00567      0.00339
     -0.02212     -0.03463     -0.01039
     -0.02709     -0.02887     -0.04595
      0.01272     -0.02487     -0.00467
      0.00372     -0.02434      0.00827
     -0.00633      0.00523      0.00767
     -0.00366     -0.00952     -0.00711
      0.01558      0.01526     -0.02594
[...]
     -0.02897     -0.04445     -0.00457
      0.02674     -0.05547      0.00400
      0.03676     -0.05551      0.01710
     -0.01019     -0.01639     -0.00040
     -0.04524     -0.02011     -0.04237
     -0.00807     -0.02569     -0.06294
      0.02629     -0.04679     -0.00845
     -0.02293      0.04506      0.01539
     -0.10134      0.06489      0.09753
      0.01559      0.03686     -0.04739
      0.02679      0.02780      0.00744
     -0.01838      0.01657      0.00673
     -0.07717      0.01762      0.01295
      0.00876      0.01549      0.00639
      0.03224      0.01404      0.00214

 NEB: forces: par spring, perp REAL, dneb     0.582712    0.073728    0.000000
 NEB: distance to prev, next image, angle between     0.941896    1.058438  103.625821
 NEB: projections on to tangent (spring, REAL)     0.582712    0.013948

 stress matrix after NEB project (eV)
    -41.26017      0.70214      0.15263
      0.70214    -39.59230     -0.91878
      0.15263     -0.91878    -14.09789
  FORCES: max atom, RMS     0.030350    0.008139
  FORCE total and by dimension    0.075035    0.022378
  Stress total and by dimension   58.918784   41.260172
 Quasi-Newton relaxation of ions (Broydens 2nd method)
  g(Force)  = 0.111E-02   g(Stress)= 0.000E+00

 Reset! Starting new Quasi-Newton update for ions

 reached required accuracy - stopping structural energy minimisation

 total charge

[...]

 magnetization (x)

# of ion       s       p       d       tot
    1        0.000   0.000   0.000   0.000
    2        0.000  -0.000   0.000  -0.000
    3        0.000   0.000   0.000   0.000
    4        0.000  -0.000   0.000  -0.000
    5        0.000  -0.000   0.000  -0.000
    6        0.000  -0.000   0.000  -0.000
    7        0.000  -0.000   0.000  -0.000
    8        0.000  -0.000   0.000  -0.000
    9        0.000  -0.000   0.000  -0.000
   10       -0.000   0.000   0.000   0.000
   11        0.000  -0.000   0.000  -0.000
   12       -0.000  -0.000   0.000  -0.000
   13        0.000   0.000   0.000   0.000
   14       -0.000  -0.000   0.000  -0.000
   15       -0.000  -0.000   0.000  -0.000
   16       -0.000  -0.000   0.000  -0.000
   17       -0.000  -0.000   0.000  -0.000
   18       -0.000  -0.000   0.000  -0.000
   19       -0.000  -0.000   0.000  -0.000
   20        0.000  -0.000   0.000  -0.000
   21       -0.000  -0.000   0.000  -0.000
   22        0.000  -0.000   0.000   0.000
   23       -0.000  -0.000   0.001   0.001
   24        0.000  -0.000   0.000   0.000
   25       -0.000  -0.000   0.000   0.000
   26       -0.000  -0.000   0.001   0.001
   27       -0.000  -0.000   0.000   0.000
   28       -0.000  -0.000   0.001   0.001
   29       -0.000  -0.000   0.000   0.000
   30        0.000  -0.000   0.000   0.000
   31       -0.000  -0.000   0.001   0.001
   32       -0.000  -0.000   0.000   0.000
   33       -0.000  -0.000   0.000   0.000
   34       -0.000  -0.000   0.000   0.000
   35       -0.000  -0.000   0.000   0.000
   36       -0.000  -0.000   0.000   0.000
   37       -0.000  -0.000   0.000   0.000
   38       -0.000  -0.000   0.000   0.000
   39       -0.000  -0.000   0.000   0.000
   40       -0.000  -0.000   0.000   0.000
   41       -0.000  -0.000   0.000   0.000
   42       -0.000  -0.000   0.000   0.000
   43       -0.000  -0.000   0.001   0.001
   44        0.000  -0.000   0.001   0.001
   45       -0.000  -0.000   0.000   0.000
   46       -0.000  -0.000   0.001   0.000
   47        0.000  -0.000   0.001   0.001
   48       -0.000  -0.000   0.001   0.001
   49       -0.000  -0.000   0.000   0.000
   50       -0.000  -0.000   0.000   0.000
   51       -0.000  -0.000   0.000   0.000
   52       -0.000  -0.000   0.000   0.000
   53       -0.000  -0.000   0.000   0.000
   54       -0.000  -0.000   0.000   0.000
   55       -0.000  -0.000   0.000   0.000
   56       -0.000  -0.000   0.000   0.000
   57       -0.000  -0.000   0.000   0.000
   58       -0.000  -0.000   0.000   0.000
   59       -0.000  -0.000   0.000   0.000
   60       -0.000  -0.000   0.000   0.000
[...]
   71       -0.000  -0.000   0.000   0.000
   72       -0.000  -0.000   0.000   0.000
   73       -0.000  -0.000   0.000   0.000
   74       -0.000  -0.000   0.000   0.000
   75       -0.000  -0.000   0.000   0.000
   76       -0.000  -0.000   0.000   0.000
   77       -0.000  -0.000   0.000   0.000
   78       -0.000  -0.000   0.000   0.000
   79       -0.000  -0.000   0.000   0.000
   80       -0.000  -0.000   0.000   0.000
   81       -0.000  -0.000   0.000   0.000
   82       -0.000  -0.000   0.000   0.000
   83       -0.000  -0.000   0.000   0.000
   84       -0.000  -0.000   0.000   0.000
   85       -0.000  -0.000   0.000   0.000
tot         -0.000  -0.001   0.021   0.020