 vasp.5.4.4.18Apr17-6-g9f103f2a35 (build May 01 2020 14:57:12) complex

 executed on             LinuxIFC date 2021.09.03  06:29:44

 INCAR:
 POTCAR:    PAW_PBE Pd 04Jan2005
 POTCAR:    PAW_PBE N 08Apr2002
 POTCAR:    PAW_PBE O 08Apr2002

 POTCAR:    PAW_PBE Pd 04Jan2005
   VRHFIN =Pd : s1 d9

   TITEL  = PAW_PBE Pd 04Jan2005
   POMASS =  106.420; ZVAL   =   10.000    mass and valenz
   ENMAX  =  250.925; ENMIN  =  188.194 eV

 POTCAR:    PAW_PBE N 08Apr2002
   VRHFIN =N: s2p3

   TITEL  = PAW_PBE N 08Apr2002
   POMASS =   14.001; ZVAL   =    5.000    mass and valenz
   ENMAX  =  400.000; ENMIN  =  300.000 eV

 POTCAR:    PAW_PBE O 08Apr2002
   VRHFIN =O: s2p4

   TITEL  = PAW_PBE O 08Apr2002
   POMASS =   16.000; ZVAL   =    6.000    mass and valenz
   ENMAX  =  400.000; ENMIN  =  300.000 eV

 Optimization of the real space projectors (new method)

 maximal supplied QI-value         = 14.36
 optimisation between [QCUT,QGAM] = [ 10.20, 20.39] = [ 29.12,116.47] Ry
 Optimized for a Real-space Cutoff    1.55 Angstroem

   l    n(q)    QCUT    max X(q) W(low)/X(q) W(high)/X(q)  e(spline)
   2      9    10.197    59.108    0.12E-03    0.40E-04    0.11E-06
   2      9    10.197    58.101    0.12E-03    0.39E-04    0.12E-06
   0      9    10.197   102.235    0.41E-04    0.86E-05    0.83E-07
   0      9    10.197    58.388    0.37E-04    0.79E-05    0.78E-07
   1      9    10.197    22.191    0.25E-03    0.13E-03    0.84E-07
   1      9    10.197    15.590    0.21E-03    0.11E-03    0.74E-07
 Optimization of the real space projectors (new method)

[...]

   l    n(q)    QCUT    max X(q) W(low)/X(q) W(high)/X(q)  e(spline)
   0     10    10.053    79.467    0.61E-04    0.98E-04    0.61E-06
   0     10    10.053    66.151    0.60E-04    0.98E-04    0.61E-06
   1     10    10.053     8.350    0.17E-03    0.71E-03    0.45E-05
   1     10    10.053     5.531    0.18E-03    0.77E-03    0.49E-05
 Optimization of the real space projectors (new method)

 maximal supplied QI-value         = 24.76
 optimisation between [QCUT,QGAM] = [ 10.15, 20.30] = [ 28.85,115.39] Ry
 Optimized for a Real-space Cutoff    1.51 Angstroem

   l    n(q)    QCUT    max X(q) W(low)/X(q) W(high)/X(q)  e(spline)
   0      9    10.150    20.381    0.17E-03    0.18E-03    0.41E-06
   0      9    10.150    15.268    0.18E-03    0.20E-03    0.43E-06
   1      9    10.150     5.964    0.16E-03    0.20E-03    0.36E-06
   1      9    10.150     5.382    0.13E-03    0.16E-03    0.33E-06
  PAW_PBE Pd 04Jan2005                  :
  PAW_PBE N 08Apr2002                   :
  PAW_PBE O 08Apr2002                   :

 POSCAR: Pd N O
  positions in direct lattice
  velocities in cartesian coordinates
 exchange correlation table for  LEXCH =        8
   RHO(1)=    0.500       N(1)  =     2000
   RHO(2)=  100.500       N(2)  =     4000

 ion  position               nearest neighbor table
   1  0.125  0.125  0.403-   2 2.75   5 2.75   4 2.75  13 2.75  18 2.75  21 2.75  17 2.75  22 2.76

   2  0.125  0.375  0.403-   1 2.75   3 2.75   6 2.75  14 2.75  18 2.75  22 2.75  19 2.75  23 2.76

[...]

  17  1.000  0.000  0.468-  29 2.74  36 2.75  33 2.75  21 2.75  48 2.75  45 2.75  18 2.75  20 2.75
                            13 2.75  16 2.75   1 2.75   4 2.75
  18  0.000  0.250  0.468-  19 2.74  33 2.74  46 2.74  22 2.74  17 2.75   2 2.75  30 2.75  14 2.75
                            45 2.75   1 2.75  13 2.75  34 2.78
  19  0.001  0.500  0.468-  18 2.74  46 2.74  23 2.74  47 2.74  20 2.74  35 2.75  34 2.75   3 2.75
                             2 2.75  31 2.76  15 2.76  14 2.76
  20  0.000  0.750  0.468-  19 2.74  36 2.74  47 2.74  24 2.75  17 2.75   3 2.75  32 2.75  15 2.75
                            48 2.75   4 2.75  16 2.75  35 2.78
  21  0.250  0.000  0.468-  40 2.74  37 2.74  17 2.75  25 2.75  36 2.75  33 2.75   1 2.75   4 2.75
                            22 2.75   5 2.75  24 2.75   8 2.75
  22  0.250  0.251  0.468-  23 2.74  37 2.74  26 2.74  18 2.74  33 2.75   2 2.75   6 2.75  21 2.75
                            34 2.76   1 2.76   5 2.76  38 2.77
  23  0.251  0.500  0.468-  27 2.73  22 2.74  24 2.74  19 2.74  34 2.75  35 2.75   7 2.75   6 2.75
                            39 2.76  38 2.76   3 2.76   2 2.76
  24  0.250  0.749  0.468-  23 2.74  40 2.74  28 2.74  20 2.75  36 2.75   3 2.75   7 2.75  21 2.75
                            35 2.76   4 2.76   8 2.76  39 2.77
  25  0.500  0.000  0.468-  29 2.75  40 2.75  37 2.75  21 2.75  44 2.75  41 2.75   9 2.75  12 2.75
                             5 2.75   8 2.75  26 2.75  28 2.75
  26  0.500  0.251  0.468-  27 2.74  30 2.74  22 2.74  37 2.75  41 2.75   6 2.75  10 2.75  25 2.75
                             5 2.76   9 2.76  42 2.76  38 2.77
  27  0.499  0.500  0.468-  23 2.73  26 2.74  28 2.74  42 2.75  43 2.75  31 2.75  39 2.76  38 2.76
                             7 2.76   6 2.76  11 2.76  10 2.76
  28  0.500  0.749  0.468-  27 2.74  32 2.74  24 2.74  40 2.74  44 2.75   7 2.75  11 2.75  25 2.75
                             8 2.76  12 2.76  43 2.76  39 2.77
  29  0.750  0.000  0.468-  17 2.74  44 2.74  41 2.74  25 2.75  48 2.75  45 2.75  30 2.75  32 2.75
                            13 2.75  16 2.75   9 2.75  12 2.75
  30  0.750  0.250  0.468-  41 2.74  31 2.74  26 2.74  46 2.75  45 2.75  18 2.75  29 2.75  10 2.75
                            14 2.75   9 2.75  13 2.76  42 2.77
  31  0.750  0.500  0.468-  30 2.74  32 2.74  47 2.75  46 2.75  27 2.75  43 2.75  42 2.75  11 2.76
                            10 2.76  19 2.76  15 2.76  14 2.76
  32  0.750  0.750  0.468-  44 2.74  31 2.74  28 2.74  47 2.75  20 2.75  48 2.75  29 2.75  11 2.75
                            15 2.75  12 2.75  16 2.76  43 2.77
  33  0.125  0.125  0.533-  45 2.74  18 2.74  22 2.75  17 2.75  54 2.75  21 2.75  37 2.75  36 2.75
                            34 2.75  49 2.76  53 2.76  50 2.76
  34  0.126  0.376  0.534-  35 2.72  38 2.73  54 2.75  23 2.75  19 2.75  33 2.75  46 2.76  22 2.76
                            50 2.76  55 2.76  51 2.76  18 2.78
  35  0.126  0.624  0.534-  34 2.72  39 2.73  56 2.75  23 2.75  19 2.75  36 2.75  47 2.75  24 2.76
                            52 2.76  51 2.76  55 2.76  20 2.78
  36  0.125  0.875  0.533-  48 2.74  20 2.74  24 2.75  17 2.75  56 2.75  21 2.75  40 2.75  35 2.75
                            33 2.75  49 2.76  53 2.76  52 2.76
  37  0.375  0.125  0.533-  22 2.74  21 2.74  26 2.75  58 2.75  25 2.75  54 2.75  41 2.75  33 2.75
                            40 2.75  38 2.75  53 2.75  57 2.75
  38  0.375  0.376  0.534-  39 2.72  34 2.73  42 2.73  58 2.74  54 2.75  37 2.75  27 2.76  23 2.76
                            26 2.77  22 2.77  59 2.83  55 2.84
  39  0.375  0.624  0.534-  38 2.72  35 2.73  43 2.74  60 2.74  56 2.75  40 2.75  27 2.76  23 2.76
                            28 2.77  24 2.77  59 2.83  55 2.84
  40  0.375  0.875  0.533-  24 2.74  21 2.74  28 2.74  60 2.75  25 2.75  56 2.75  44 2.75  36 2.75
                            37 2.75  39 2.75  53 2.75  57 2.75
  41  0.625  0.125  0.533-  58 2.74  30 2.74  29 2.74  45 2.74  26 2.75  37 2.75  25 2.75  44 2.75
                            61 2.76  42 2.76  57 2.76  62 2.76
  42  0.624  0.376  0.533-  43 2.72  38 2.73  58 2.75  27 2.75  31 2.75  59 2.75  62 2.76  41 2.76
                            46 2.76  63 2.76  26 2.76  30 2.77
  43  0.624  0.624  0.533-  42 2.72  39 2.74  60 2.75  27 2.75  31 2.75  59 2.76  44 2.76  64 2.76
                            47 2.76  28 2.76  63 2.76  32 2.77
  44  0.625  0.875  0.533-  60 2.74  32 2.74  29 2.74  48 2.74  28 2.75  40 2.75  25 2.75  41 2.75
                            61 2.76  43 2.76  57 2.76  64 2.76
  45  0.875  0.125  0.533-  46 2.74  33 2.74  41 2.74  17 2.75  29 2.75  30 2.75  48 2.75  18 2.75
                            50 2.75  62 2.75  49 2.75  61 2.75
  46  0.875  0.375  0.533-  45 2.74  19 2.74  18 2.74  31 2.75  30 2.75  63 2.75  47 2.75  34 2.76
                            50 2.76  51 2.76  62 2.76  42 2.76
  47  0.875  0.625  0.533-  48 2.74  19 2.74  20 2.74  31 2.75  32 2.75  63 2.75  46 2.75  35 2.75
                            52 2.76  51 2.76  64 2.76  43 2.76
  48  0.875  0.875  0.533-  47 2.74  36 2.74  44 2.74  17 2.75  29 2.75  32 2.75  45 2.75  20 2.75
                            52 2.75  64 2.75  49 2.75  61 2.75
  49  0.000  0.000  0.598-  52 2.74  50 2.74  53 2.74  61 2.75  45 2.75  48 2.75  33 2.76  36 2.76

[...]

  55  0.243  0.500  0.601-  65 2.00  51 2.69  34 2.76  35 2.76  54 2.77  56 2.77  38 2.84  39 2.84
                            59 2.91
  56  0.250  0.752  0.598-  53 2.73  35 2.75  39 2.75  36 2.75  40 2.75  52 2.75  60 2.75  55 2.77

[...]

  59  0.507  0.500  0.601-  66 2.14  63 2.70  42 2.75  43 2.76  58 2.77  60 2.77  38 2.83  39 2.83
                            55 2.91
  60  0.501  0.752  0.598-  57 2.73  44 2.74  39 2.74  64 2.75  40 2.75  43 2.75  56 2.75  59 2.77

[...]

  65  0.310  0.501  0.663-  67 1.22  66 1.30  55 2.00
  66  0.428  0.501  0.666-  65 1.30  59 2.14
  67  0.248  0.501  0.697-  65 1.22

  LATTYP: Found a simple tetragonal cell.
 ALAT       =    10.9820000000
 C/A-ratio  =     2.7317428519

  Lattice vectors:

 A1 = (  10.9820000000,   0.0000000000,   0.0000000000)
 A2 = (   0.0000000000,  10.9820000000,   0.0000000000)
 A3 = (   0.0000000000,   0.0000000000,  30.0000000000)

Analysis of symmetry for initial positions (statically):
 Subroutine PRICEL returns:
 Original cell was already a primitive cell.

 Routine SETGRP: Setting up the symmetry group for a
 simple tetragonal supercell.

 Subroutine GETGRP returns: Found  1 space group operations
 (whereof  1 operations were pure point group operations)
 out of a pool of 16 trial point group operations.

The static configuration has the point symmetry C_1 .

Analysis of symmetry for dynamics (positions and initial velocities):
 Subroutine PRICEL returns:
 Original cell was already a primitive cell.

[...]

The dynamic configuration has the point symmetry C_1 .

Analysis of constrained symmetry for selective dynamics:
 Subroutine PRICEL returns:
 Original cell was already a primitive cell.

[...]

The constrained configuration has the point symmetry C_1 .

Analysis of structural, dynamic, and magnetic symmetry:
 Subroutine PRICEL returns:
 Original cell was already a primitive cell.

 Routine SETGRP: Setting up the symmetry group for a
 simple tetragonal supercell.

 Subroutine GETGRP returns: Found  1 space group operations
 (whereof  1 operations were pure point group operations)
 out of a pool of 16 trial point group operations.

The magnetic configuration has the point symmetry C_1 .

 Subroutine INISYM returns: Found  1 space group operations
 (whereof  1 operations are pure point group operations),
 and found     1 'primitive' translations

 KPOINTS: K-Point Grid

Automatic generation of k-mesh.
Space group operators:
 irot       det(A)        alpha          n_x          n_y          n_z        tau_x        tau_y        tau_z
    1     1.000000     0.000001     1.000000     0.000000     0.000000     0.000000     0.000000     0.000000

 Subroutine IBZKPT returns following result:

 Found      8 irreducible k-points:

 Following reciprocal coordinates:
[...]
   -.180E+01 0.226E+00 0.268E+04   0.182E+01 -.223E+00 -.268E+04   -.189E-01 -.197E-01 -.326E+01   -.713E-02 -.156E-02 -.137E-01
   -.107E+01 -.707E+00 0.268E+04   0.108E+01 0.717E+00 -.267E+04   0.724E-02 -.169E-01 -.329E+01   -.173E-01 0.502E-02 -.225E-01
   0.853E+00 0.616E+00 0.268E+04   -.847E+00 -.692E+00 -.267E+04   -.115E-01 0.396E-01 -.326E+01   -.112E-01 0.107E-02 -.255E-01
   0.742E+00 -.105E+01 0.268E+04   -.725E+00 0.106E+01 -.267E+04   0.526E-02 0.259E-01 -.326E+01   -.225E-01 -.561E-02 -.162E-01
   0.742E+00 0.115E+01 0.268E+04   -.725E+00 -.115E+01 -.267E+04   0.525E-02 -.264E-01 -.326E+01   -.217E-01 -.779E-03 -.222E-01
   0.851E+00 -.741E+00 0.268E+04   -.846E+00 0.808E+00 -.267E+04   -.113E-01 -.360E-01 -.326E+01   -.105E-01 0.532E-02 -.315E-01
   0.252E+01 -.825E-01 0.957E+03   -.252E+01 0.726E-01 -.957E+03   -.135E-01 -.538E-03 -.790E-01   0.141E-01 0.103E-01 -.240E-01
   0.290E+01 0.332E+01 0.964E+03   -.295E+01 -.335E+01 -.964E+03   0.565E-01 0.397E-01 0.373E-01   -.304E-02 -.234E-02 -.492E-02
   0.667E+01 0.113E+00 0.962E+03   -.662E+01 -.103E+00 -.962E+03   -.379E-01 -.322E-04 -.892E-01   -.204E-01 -.103E-01 0.330E-02
   0.291E+01 -.334E+01 0.964E+03   -.296E+01 0.338E+01 -.964E+03   0.565E-01 -.401E-01 0.386E-01   -.268E-02 0.226E-02 -.169E-01
   0.183E+01 -.796E-01 0.961E+03   -.185E+01 0.686E-01 -.961E+03   -.494E-02 -.159E-03 -.533E-01   0.202E-01 0.111E-01 -.271E-01
   0.208E+01 0.666E+01 0.965E+03   -.213E+01 -.665E+01 -.965E+03   0.296E-01 0.993E-02 -.109E-01   0.223E-01 -.188E-01 -.102E-01
   0.364E+01 0.770E-01 0.970E+03   -.364E+01 -.659E-01 -.970E+03   -.198E-01 0.120E-03 -.124E+00   0.208E-01 -.113E-01 -.507E-02
   0.203E+01 -.665E+01 0.965E+03   -.208E+01 0.664E+01 -.965E+03   0.296E-01 -.966E-02 -.106E-01   0.203E-01 0.188E-01 -.221E-01
   -.279E+01 -.729E-01 0.962E+03   0.281E+01 0.608E-01 -.962E+03   -.181E-02 -.140E-03 -.140E-01   -.138E-01 0.122E-01 -.361E-01
   -.372E+01 0.576E+01 0.965E+03   0.375E+01 -.577E+01 -.965E+03   -.301E-01 0.205E-01 0.198E-01   0.298E-02 -.139E-02 -.160E-01
   -.632E+01 0.766E-01 0.968E+03   0.626E+01 -.642E-01 -.968E+03   0.433E-01 -.231E-04 -.137E+00   0.211E-01 -.124E-01 -.709E-02
   -.368E+01 -.576E+01 0.965E+03   0.371E+01 0.578E+01 -.965E+03   -.302E-01 -.200E-01 0.197E-01   0.276E-02 0.142E-02 -.283E-01
   -.170E+01 -.772E-01 0.956E+03   0.170E+01 0.662E-01 -.956E+03   0.229E-01 -.483E-03 -.969E-01   -.204E-01 0.115E-01 -.326E-01
   -.174E+01 0.330E+01 0.959E+03   0.179E+01 -.333E+01 -.959E+03   -.231E-01 0.152E-01 -.220E-01   -.222E-01 0.154E-01 -.105E-01
   -.396E+01 0.108E+00 0.960E+03   0.397E+01 -.968E-01 -.960E+03   0.114E-01 0.411E-04 -.629E-01   -.211E-01 -.115E-01 0.318E-03
   -.174E+01 -.332E+01 0.959E+03   0.178E+01 0.335E+01 -.959E+03   -.232E-01 -.158E-01 -.203E-01   -.203E-01 -.154E-01 -.228E-01
   0.113E+02 0.131E+02 -.801E+03   -.113E+02 -.131E+02 0.801E+03   0.330E-02 -.317E-01 0.631E-01   0.149E-01 0.116E-01 0.174E-01
   0.235E+02 0.214E+02 -.789E+03   -.233E+02 -.212E+02 0.789E+03   -.242E+00 -.267E+00 -.123E+00   -.940E-03 -.921E-02 0.380E-01
   0.234E+02 -.211E+02 -.788E+03   -.232E+02 0.208E+02 0.788E+03   -.235E+00 0.261E+00 -.114E+00   -.184E-02 -.125E-01 0.353E-01
   0.113E+02 -.134E+02 -.800E+03   -.113E+02 0.133E+02 0.800E+03   0.315E-02 0.320E-01 0.637E-01   0.143E-01 0.983E-02 0.146E-01
   -.260E+01 0.167E+02 -.791E+03   0.259E+01 -.166E+02 0.791E+03   0.126E-01 -.547E-01 -.822E-02   0.109E-02 0.148E-01 0.148E-02
   -.530E+01 0.167E+02 -.784E+03   0.529E+01 -.168E+02 0.784E+03   -.656E-03 0.956E-01 0.336E+00   0.201E-01 -.895E-02 0.258E-01
   -.533E+01 -.164E+02 -.784E+03   0.531E+01 0.166E+02 0.784E+03   -.894E-03 -.973E-01 0.338E+00   0.191E-01 -.147E-01 0.235E-01
   -.263E+01 -.169E+02 -.791E+03   0.262E+01 0.168E+02 0.791E+03   0.125E-01 0.546E-01 -.830E-02   -.461E-04 0.862E-02 -.951E-03
   -.111E+02 0.110E+02 -.805E+03   0.112E+02 -.110E+02 0.805E+03   -.962E-02 -.321E-01 0.590E-01   -.132E-01 0.296E-01 0.511E-02
   -.222E+02 0.183E+02 -.798E+03   0.220E+02 -.180E+02 0.798E+03   0.212E+00 -.267E+00 -.151E+00   -.146E-03 0.860E-02 0.202E-01
   -.220E+02 -.180E+02 -.797E+03   0.218E+02 0.178E+02 0.797E+03   0.205E+00 0.261E+00 -.142E+00   0.664E-03 -.326E-01 0.179E-01
   -.112E+02 -.112E+02 -.805E+03   0.112E+02 0.112E+02 0.805E+03   -.911E-02 0.328E-01 0.590E-01   -.126E-01 -.583E-02 0.270E-02
   0.262E+01 0.856E+01 -.815E+03   -.261E+01 -.857E+01 0.815E+03   -.842E-02 -.176E-01 0.572E-01   -.275E-02 0.267E-01 0.208E-01
   0.432E+01 0.109E+02 -.796E+03   -.429E+01 -.109E+02 0.796E+03   -.103E-01 -.159E-01 0.235E-01   -.192E-01 0.825E-02 0.326E-01
   0.434E+01 -.107E+02 -.796E+03   -.432E+01 0.108E+02 0.796E+03   -.101E-01 0.166E-01 0.229E-01   -.180E-01 -.303E-01 0.297E-01
   0.264E+01 -.872E+01 -.815E+03   -.263E+01 0.872E+01 0.815E+03   -.854E-02 0.163E-01 0.573E-01   -.161E-02 -.457E-02 0.180E-01
   0.153E+02 -.206E+00 -.257E+04   -.153E+02 0.193E+00 0.256E+04   0.187E-01 -.874E-04 0.329E+01   0.748E-02 0.135E-01 0.270E-01
   0.328E+02 0.400E+02 -.255E+04   -.329E+02 -.400E+02 0.254E+04   0.533E-01 0.504E-01 0.334E+01   -.860E-03 0.184E-01 0.196E-01
   0.710E+02 0.302E+00 -.252E+04   -.711E+02 -.290E+00 0.252E+04   0.120E+00 0.475E-03 0.331E+01   -.125E-01 -.133E-01 0.222E-01
   0.331E+02 -.401E+02 -.255E+04   -.332E+02 0.402E+02 0.254E+04   0.536E-01 -.501E-01 0.334E+01   -.401E-03 -.185E-01 0.293E-01
   0.106E+02 -.342E+00 -.255E+04   -.106E+02 0.328E+00 0.255E+04   -.293E-01 0.649E-03 0.326E+01   0.348E-03 0.138E-01 0.179E-01
   0.272E+02 0.953E+02 -.249E+04   -.273E+02 -.956E+02 0.249E+04   0.957E-01 0.240E+00 0.344E+01   0.399E-02 0.973E-02 0.160E-01
   0.106E+03 0.146E+01 -.230E+04   -.106E+03 -.144E+01 0.230E+04   -.179E+00 -.864E-02 -.681E+00   0.526E-02 -.134E-01 0.229E-01
   0.275E+02 -.957E+02 -.249E+04   -.276E+02 0.960E+02 0.249E+04   0.983E-01 -.250E+00 0.345E+01   0.277E-02 -.935E-02 0.263E-01
   -.172E+02 -.264E+00 -.256E+04   0.171E+02 0.250E+00 0.255E+04   0.239E-01 -.106E-03 0.326E+01   -.684E-02 0.145E-01 0.186E-01
   -.420E+02 0.791E+02 -.251E+04   0.421E+02 -.796E+02 0.250E+04   -.101E+00 0.370E+00 0.353E+01   0.704E-03 0.245E-01 0.104E-01
   -.132E+03 0.104E+01 -.237E+04   0.132E+03 -.102E+01 0.237E+04   -.481E+00 0.281E-02 0.189E+01   0.955E-02 -.142E-01 0.155E-01
   -.424E+02 -.795E+02 -.250E+04   0.425E+02 0.799E+02 0.250E+04   -.105E+00 -.379E+00 0.353E+01   0.411E-03 -.240E-01 0.215E-01
   -.866E+01 -.157E+00 -.257E+04   0.867E+01 0.143E+00 0.257E+04   -.117E-01 -.470E-03 0.329E+01   -.868E-03 0.142E-01 0.278E-01
   -.180E+02 0.318E+02 -.256E+04   0.180E+02 -.318E+02 0.255E+04   -.477E-01 0.308E-01 0.332E+01   -.386E-02 0.283E-01 0.134E-01
   -.377E+02 0.207E+00 -.254E+04   0.379E+02 -.193E+00 0.254E+04   -.155E+00 -.803E-04 0.327E+01   -.581E-02 -.140E-01 0.106E-01
   -.180E+02 -.319E+02 -.256E+04   0.181E+02 0.319E+02 0.255E+04   -.478E-01 -.300E-01 0.332E+01   -.283E-02 -.284E-01 0.240E-01
   0.592E+02 0.761E+00 -.140E+04   -.672E+02 -.887E+00 0.138E+04   0.795E+01 0.129E+00 0.225E+02   0.796E-02 -.323E-02 -.125E-02
   -.284E+03 -.210E+00 -.189E+04   0.327E+03 0.280E+00 0.191E+04   -.433E+02 -.678E-01 -.145E+02   0.477E-02 -.378E-02 -.857E-02
   0.220E+03 -.153E+01 -.200E+04   -.253E+03 0.180E+01 0.205E+04   0.333E+02 -.268E+00 -.469E+02   0.395E-02 -.211E-02 -.406E-02
   0.272E+01 0.246E+00 0.431E+02   0.341E-12 -.367E-12 -.955E-11   -.273E+01 -.239E+00 -.431E+02   0.138E-01 -.851E-02 0.280E-01

 POSITION                                       TOTAL-FORCE (eV/Angst)
      1.37275      1.37275     12.08797         0.007183     -0.000124     -0.001956
      1.37275      4.11824     12.08797         0.005185      0.017355      0.007344
      1.37275      6.86373     12.08797         0.005047     -0.017161      0.007205
      1.37275      9.60922     12.08797         0.007347      0.001087     -0.002064
      4.11824      1.37275     12.08797        -0.006027     -0.000584      0.010064
      4.11824      4.11824     12.08797         0.004750     -0.001372     -0.011496
      4.11824      6.86373     12.08797         0.004775      0.001288     -0.011914
      4.11824      9.60922     12.08797        -0.005924      0.000865      0.010180
      6.86373      1.37275     12.08797         0.000406      0.001908     -0.005423
      6.86373      4.11824     12.08797        -0.002493      0.017887      0.014750
      6.86373      6.86373     12.08797        -0.002430     -0.017691      0.014490
      6.86373      9.60922     12.08797         0.000128     -0.001123     -0.005648
      9.60922      1.37275     12.08797        -0.016736     -0.035694     -0.048644
      9.60922      4.11824     12.08797         0.000088      0.025217      0.018408
      9.60922      6.86373     12.08797         0.000048     -0.025129      0.017600
      9.60922      9.60922     12.08797        -0.016609      0.036459     -0.048786
     10.98064      0.00023     14.03985         0.001255     -0.000021      0.000466
      0.00043      2.74756     14.03521        -0.001241     -0.001310     -0.000262
      0.01039      5.49101     14.04843        -0.001848     -0.000065     -0.001168
      0.00033      8.23474     14.03489        -0.001190      0.001247     -0.000207
      2.74462      0.00009     14.04055         0.000061     -0.000016     -0.002261
      2.74539      2.75393     14.04306        -0.000337     -0.000121      0.000844
      2.75409      5.49101     14.04838        -0.001690      0.000041      0.004868
      2.74545      8.22815     14.04295        -0.000188      0.000280      0.000940
      5.49133      0.00005     14.03785         0.000056      0.000045     -0.002129
      5.49020      2.75260     14.04108        -0.000006     -0.001488     -0.000411
      5.48504      5.49099     14.04889         0.001462      0.000026      0.002536
      5.49015      8.22941     14.04102        -0.000094      0.001724     -0.000449
      8.23684      0.00020     14.04069        -0.000380     -0.000041      0.000482
      8.23389      2.74898     14.04070         0.001762     -0.001509     -0.000989
      8.23302      5.49101     14.04815         0.001160     -0.000026     -0.002951
      8.23394      8.23331     14.04037         0.001693      0.001593     -0.001005
      1.37001      1.37759     15.97947         0.000608      0.000150     -0.000428
      1.38710      4.13218     16.00739        -0.000646      0.000340     -0.000734
      1.38650      6.85059     16.00665        -0.000920     -0.000139     -0.001046
      1.36992      9.60484     15.97914         0.000618     -0.000011     -0.000149
      4.11791      1.37508     15.97866         0.000175      0.000772     -0.002142
      4.12073      4.12834     16.01754         0.000037      0.001155      0.001216
      4.12071      6.85330     16.01762         0.000259     -0.001251      0.001334
      4.11796      9.60695     15.97849         0.000157     -0.000782     -0.002071
      6.86543      1.37546     15.97955         0.000618     -0.001115      0.000407
      6.85544      4.13155     16.00440        -0.000186     -0.000195     -0.001904
      6.85589      6.85106     16.00371        -0.000036      0.000501     -0.001854
      6.86551      9.60681     15.97937         0.000624      0.001157      0.000554
      9.60982      1.37457     15.98270        -0.000150     -0.000962      0.001319
      9.61410      4.11613     15.98174        -0.000157      0.000529     -0.001525
      9.61405      6.86626     15.98148        -0.000073     -0.000493     -0.001466
      9.60982      9.60790     15.98249        -0.000244      0.000883      0.001314
      0.00073      0.00013     17.93510         0.001101      0.000193      0.001433
     10.97627      2.74007     17.94208         0.000927     -0.000319      0.001021
     10.95976      5.49137     17.95510        -0.000598     -0.000205      0.001248
     10.97621      8.24234     17.94191         0.000892      0.000236      0.001307
      2.74546     10.98193     17.93132         0.000379      0.000138      0.003325
      2.74446      2.72714     17.93660         0.000998      0.001297      0.000383
      2.66661      5.49031     18.04279         0.003379     -0.000071      0.006068
      2.74416      8.25495     17.93568         0.000986     -0.001399      0.001063
      5.48903     10.98191     17.93265         0.001257      0.000003      0.004122
      5.49629      2.72495     17.93331        -0.000684      0.001844     -0.000390
      5.57180      5.49026     18.02697        -0.001848      0.000167      0.004055
      5.49655      8.25688     17.93275        -0.001088     -0.001610      0.000316
      8.23519      0.00017     17.93483        -0.000364     -0.000190      0.001613
      8.24223      2.74317     17.93961        -0.000027     -0.000424     -0.000320
      8.27064      5.49142     17.94531         0.001580     -0.000033     -0.000112
      8.24230      8.23928     17.93946        -0.000307      0.000298      0.000225
      3.40920      5.50059     19.89890        -0.009237     -0.000728      0.011704
      4.70183      5.50086     19.98342         0.000734     -0.001448      0.011616
      2.72626      5.50635     20.91297         0.016024     -0.001836     -0.003917
    total drift:                                0.004248     -0.001602      0.007809

  FREE ENERGIE OF THE ION-ELECTRON SYSTEM (eV)
  free  energy   TOTEN  =      -356.43216273 eV

  energy  without entropy=     -356.30141013  energy(sigma->0) =     -356.38857853

 d Force = 0.2175335E-03[ 0.615E-05, 0.429E-03]  d Energy = 0.2332426E-03-0.157E-04
 d Force =-0.4784287E+01[-0.479E+01,-0.478E+01]  d Ewald  =-0.4784286E+01-0.943E-06

 reached required accuracy - stopping structural energy minimisation

 total charge

[...]

 magnetization (x)

# of ion       s       p       d       tot
    1       -0.000  -0.003   0.209   0.205
    2       -0.001  -0.003   0.205   0.201
    3       -0.001  -0.003   0.205   0.201
    4       -0.000  -0.003   0.209   0.205
    5       -0.001  -0.004   0.201   0.197
    6       -0.000  -0.003   0.208   0.205
    7       -0.000  -0.003   0.208   0.205
    8       -0.001  -0.004   0.201   0.197
    9       -0.001  -0.003   0.212   0.207
   10       -0.001  -0.003   0.203   0.200
   11       -0.001  -0.003   0.204   0.200
   12       -0.001  -0.003   0.212   0.208
   13        0.001  -0.003   0.219   0.216
   14       -0.001  -0.003   0.201   0.197
   15       -0.001  -0.003   0.201   0.197
   16        0.001  -0.003   0.219   0.217
   17       -0.002  -0.006   0.310   0.302
   18       -0.002  -0.006   0.299   0.291
   19       -0.002  -0.006   0.305   0.297
   20       -0.002  -0.006   0.299   0.292
   21       -0.002  -0.006   0.299   0.292
   22       -0.002  -0.006   0.306   0.298
   23       -0.002  -0.006   0.298   0.291
   24       -0.002  -0.006   0.306   0.298
   25       -0.002  -0.006   0.304   0.296
   26       -0.002  -0.006   0.302   0.294
   27       -0.002  -0.006   0.290   0.282
   28       -0.002  -0.006   0.302   0.294
   29       -0.002  -0.006   0.318   0.310
   30       -0.002  -0.006   0.297   0.290
   31       -0.002  -0.006   0.303   0.296
   32       -0.002  -0.006   0.298   0.290
   33       -0.002  -0.006   0.303   0.295
   34       -0.002  -0.006   0.260   0.253
   35       -0.002  -0.006   0.261   0.254
   36       -0.002  -0.006   0.303   0.295
   37       -0.002  -0.006   0.293   0.286
   38       -0.001  -0.005   0.290   0.284
   39       -0.001  -0.005   0.290   0.284
   40       -0.002  -0.006   0.293   0.286
   41       -0.002  -0.006   0.307   0.299
   42       -0.002  -0.006   0.270   0.262
   43       -0.002  -0.006   0.271   0.263
   44       -0.002  -0.006   0.307   0.299
   45       -0.002  -0.006   0.311   0.303
   46       -0.002  -0.006   0.298   0.290
   47       -0.002  -0.006   0.298   0.290
   48       -0.002  -0.006   0.311   0.303
   49       -0.001  -0.003   0.196   0.191
   50       -0.001  -0.003   0.200   0.196
   51       -0.000  -0.003   0.174   0.171
   52       -0.001  -0.003   0.200   0.196
   53       -0.000  -0.003   0.186   0.183
   54       -0.001  -0.003   0.193   0.190
   55       -0.002  -0.005   0.051   0.044
   56       -0.001  -0.003   0.194   0.190
   57       -0.000  -0.003   0.192   0.189
   58       -0.001  -0.003   0.209   0.205
   59       -0.002  -0.003   0.126   0.120
   60       -0.001  -0.003   0.209   0.206
   61       -0.001  -0.003   0.195   0.190
   62       -0.001  -0.003   0.200   0.196
   63       -0.001  -0.004   0.180   0.176
   64       -0.001  -0.003   0.200   0.196
   65       -0.001  -0.003   0.000  -0.004
   66        0.000   0.001   0.000   0.001
   67       -0.000  -0.002   0.000  -0.002
tot         -0.076  -0.299  15.724  15.349