 vasp.5.4.4.18Apr17-6-g9f103f2a35 (build May 01 2020 14:57:12) complex

 executed on             LinuxIFC date 2022.01.27  16:01:58

 INCAR:
 POTCAR:    PAW_PBE N 08Apr2002
 POTCAR:    PAW_PBE O 08Apr2002
 POTCAR:    PAW_PBE Pd 04Jan2005

 POTCAR:    PAW_PBE N 08Apr2002
   VRHFIN =N: s2p3

   TITEL  = PAW_PBE N 08Apr2002
   POMASS =   14.001; ZVAL   =    5.000    mass and valenz
   ENMAX  =  400.000; ENMIN  =  300.000 eV

 POTCAR:    PAW_PBE O 08Apr2002
   VRHFIN =O: s2p4

   TITEL  = PAW_PBE O 08Apr2002
   POMASS =   16.000; ZVAL   =    6.000    mass and valenz
   ENMAX  =  400.000; ENMIN  =  300.000 eV

 POTCAR:    PAW_PBE Pd 04Jan2005
   VRHFIN =Pd : s1 d9

   TITEL  = PAW_PBE Pd 04Jan2005
   POMASS =  106.420; ZVAL   =   10.000    mass and valenz
   ENMAX  =  250.925; ENMIN  =  188.194 eV

 Optimization of the real space projectors (new method)

 maximal supplied QI-value         = 25.13
 optimisation between [QCUT,QGAM] = [ 10.05, 20.36] = [ 28.30,116.06] Ry
 Optimized for a Real-space Cutoff    1.70 Angstroem

   l    n(q)    QCUT    max X(q) W(low)/X(q) W(high)/X(q)  e(spline)
   0     10    10.053    79.467    0.61E-04    0.98E-04    0.61E-06
   0     10    10.053    66.151    0.60E-04    0.98E-04    0.61E-06
   1     10    10.053     8.350    0.17E-03    0.71E-03    0.45E-05
   1     10    10.053     5.531    0.18E-03    0.77E-03    0.49E-05
 Optimization of the real space projectors (new method)

[...]

   l    n(q)    QCUT    max X(q) W(low)/X(q) W(high)/X(q)  e(spline)
   0      9    10.150    20.381    0.17E-03    0.18E-03    0.41E-06
   0      9    10.150    15.268    0.18E-03    0.20E-03    0.43E-06
   1      9    10.150     5.964    0.16E-03    0.20E-03    0.36E-06
   1      9    10.150     5.382    0.13E-03    0.16E-03    0.33E-06
 Optimization of the real space projectors (new method)

 maximal supplied QI-value         = 14.36
 optimisation between [QCUT,QGAM] = [ 10.20, 20.39] = [ 29.12,116.47] Ry
 Optimized for a Real-space Cutoff    1.55 Angstroem

   l    n(q)    QCUT    max X(q) W(low)/X(q) W(high)/X(q)  e(spline)
   2      9    10.197    59.108    0.12E-03    0.40E-04    0.11E-06
   2      9    10.197    58.101    0.12E-03    0.39E-04    0.12E-06
   0      9    10.197   102.235    0.41E-04    0.86E-05    0.83E-07
   0      9    10.197    58.388    0.37E-04    0.79E-05    0.78E-07
   1      9    10.197    22.191    0.25E-03    0.13E-03    0.84E-07
   1      9    10.197    15.590    0.21E-03    0.11E-03    0.74E-07
  PAW_PBE N 08Apr2002                   :
  PAW_PBE O 08Apr2002                   :
  PAW_PBE Pd 04Jan2005                  :

 POSCAR: N O Pd
  positions in direct lattice
  velocities in cartesian coordinates
 exchange correlation table for  LEXCH =        8
   RHO(1)=    0.500       N(1)  =     2000
   RHO(2)=  100.500       N(2)  =     4000

 ion  position               nearest neighbor table
   1  0.365  0.302  0.645-   3 1.28  75 1.99  79 2.07
   2  0.375  0.009  0.651-  12 1.19  78 1.99  74 2.00
   3  0.351  0.414  0.654-   1 1.28  13 1.32  76 2.17
   4  0.743  0.382  0.649-  14 1.19  84 1.94  83 2.00
   5  0.655  0.096  0.644-  15 1.21  82 2.02  83 2.19  78 2.22
   6  0.636  0.723  0.650-  16 1.19  85 1.95  81 2.01
   7  0.005  0.373  0.650-  17 1.19  72 1.98  71 1.98
   8  0.100  0.098  0.643-  18 1.21  70 2.04  74 2.22  71 2.25
   9  0.093  0.650  0.644-  19 1.21  73 2.03  72 2.19  77 2.23
  10  0.884  0.879  0.641-  20 1.21  70 2.17  73 2.21  82 2.28  85 2.35
  11  0.361  0.752  0.652-  21 1.19  77 1.96  81 2.01
  12  0.374  0.038  0.689-   2 1.19
  13  0.446  0.482  0.664-   3 1.32  80 2.15
  14  0.726  0.390  0.688-   4 1.19
  15  0.660  0.090  0.684-   5 1.21
  16  0.645  0.729  0.690-   6 1.19
  17  0.028  0.372  0.689-   7 1.19
  18  0.096  0.095  0.684-   8 1.21
  19  0.088  0.655  0.684-   9 1.21
  20  0.885  0.881  0.682-  10 1.21
  21  0.357  0.732  0.691-  11 1.19
  22  0.125  0.125  0.403-  43 2.73  26 2.75  23 2.75  34 2.75  25 2.75  39 2.76  38 2.76  42 2.78

  23  0.125  0.375  0.403-  43 2.74  24 2.75  27 2.75  22 2.75  35 2.75  44 2.75  40 2.76  39 2.77

[...]

  37  0.875  0.875  0.403-  33 2.75  36 2.75  34 2.75  25 2.75  38 2.76  50 2.76  41 2.77  53 2.77

  38  1.000  1.000  0.468-  39 2.74  42 2.75  41 2.75  50 2.75  37 2.76  69 2.76  25 2.76  34 2.76
                            54 2.76  22 2.76  57 2.78  66 2.78
  39  0.999  0.250  0.468-  55 2.72  51 2.73  38 2.74  40 2.75  43 2.75  34 2.75  66 2.75  35 2.75
                            22 2.76  23 2.77  54 2.78  67 2.79
  40  0.999  0.500  0.468-  52 2.72  55 2.72  41 2.74  39 2.75  44 2.75  35 2.75  36 2.75  23 2.76
                            24 2.76  68 2.76  56 2.78  67 2.82
  41  0.000  0.749  0.468-  40 2.74  38 2.75  45 2.75  69 2.75  24 2.76  53 2.76  36 2.76  25 2.76
                            37 2.77  56 2.77  57 2.78  68 2.78
  42  0.250  0.998  0.469-  45 2.72  58 2.72  46 2.73  57 2.75  38 2.75  43 2.75  29 2.75  25 2.76
                            26 2.77  22 2.78  54 2.78  61 2.84
  43  0.249  0.249  0.468-  59 2.73  22 2.73  26 2.74  23 2.74  55 2.75  39 2.75  42 2.75  27 2.75
                            58 2.75  47 2.77  44 2.78  54 2.79
  44  0.250  0.502  0.468-  59 2.71  24 2.73  45 2.74  28 2.74  40 2.75  23 2.75  55 2.75  27 2.76
                            48 2.77  56 2.77  43 2.78  60 2.79
  45  0.251  0.751  0.469-  42 2.72  49 2.73  60 2.73  44 2.74  57 2.74  41 2.75  29 2.76  25 2.77
                            28 2.77  56 2.78  24 2.78  61 2.84
  46  0.499  0.999  0.468-  49 2.71  58 2.72  42 2.73  65 2.75  50 2.75  29 2.75  47 2.75  33 2.76
                            26 2.76  30 2.77  62 2.78  61 2.85
  47  0.501  0.249  0.468-  59 2.72  30 2.74  51 2.74  31 2.75  26 2.75  46 2.75  58 2.76  27 2.76
                            63 2.76  43 2.77  62 2.78  48 2.78
  48  0.502  0.502  0.468-  59 2.71  32 2.72  28 2.74  49 2.74  52 2.75  31 2.75  63 2.76  44 2.77
                            27 2.77  60 2.77  47 2.78  64 2.79
  49  0.499  0.752  0.469-  46 2.71  60 2.73  45 2.73  48 2.74  65 2.74  53 2.75  29 2.75  33 2.76
                            28 2.77  64 2.78  32 2.78  61 2.85
  50  0.749  0.000  0.468-  46 2.75  51 2.75  53 2.75  38 2.75  69 2.75  30 2.75  33 2.76  34 2.76
                            37 2.76  62 2.77  66 2.78  65 2.79
  51  0.751  0.250  0.469-  63 2.72  39 2.73  52 2.74  47 2.74  66 2.74  50 2.75  35 2.76  34 2.76
                            62 2.77  31 2.77  30 2.77  67 2.81
  52  0.752  0.499  0.468-  40 2.72  63 2.72  51 2.74  35 2.75  53 2.75  48 2.75  68 2.75  36 2.75
                            31 2.77  32 2.78  64 2.78  67 2.83
  53  0.749  0.750  0.468-  64 2.73  69 2.74  49 2.75  52 2.75  50 2.75  41 2.76  32 2.76  33 2.76
                            36 2.76  37 2.77  68 2.79  65 2.80
  54  0.124  0.124  0.534-  75 2.72  66 2.74  57 2.75  55 2.75  58 2.75  38 2.76  39 2.78  42 2.78
                            43 2.79  70 2.81  71 2.81  74 2.81
  55  0.123  0.375  0.532-  67 2.70  39 2.72  40 2.72  56 2.74  43 2.75  54 2.75  44 2.75  75 2.76
                            59 2.77  76 2.79  72 2.90  71 2.92
  56  0.125  0.624  0.534-  68 2.74  57 2.74  55 2.74  77 2.76  60 2.76  41 2.77  44 2.77  45 2.78
                            40 2.78  76 2.78  72 2.80  73 2.84
  57  0.127  0.874  0.534-  61 2.72  45 2.74  56 2.74  54 2.75  42 2.75  41 2.78  38 2.78  69 2.79
                            70 2.80  73 2.81  74 2.85  77 2.86
  58  0.375  0.123  0.532-  46 2.72  42 2.72  61 2.72  62 2.75  54 2.75  43 2.75  47 2.76  59 2.79
                            75 2.80  79 2.80  78 2.88  74 2.91
  59  0.375  0.377  0.530-  44 2.71  48 2.71  47 2.72  43 2.73  76 2.74  79 2.74  63 2.77  60 2.77
                            55 2.77  58 2.79  75 2.82  80 2.87
  60  0.376  0.629  0.533-  61 2.71  49 2.73  45 2.73  64 2.75  56 2.76  59 2.77  80 2.77  48 2.77
                            76 2.78  44 2.79  77 2.88  81 2.93
  61  0.374  0.876  0.538-  65 2.71  60 2.71  57 2.72  58 2.72  74 2.82  81 2.83  42 2.84  45 2.84
                            49 2.85  46 2.85  78 2.89  77 2.89
  62  0.625  0.125  0.534-  65 2.74  66 2.74  58 2.75  63 2.76  50 2.77  51 2.77  47 2.78  46 2.78
                            78 2.78  79 2.79  83 2.80  82 2.82
  63  0.627  0.376  0.533-  52 2.72  51 2.72  80 2.72  67 2.75  62 2.76  79 2.76  48 2.76  47 2.76
                            64 2.77  59 2.77  84 2.86  83 2.91
  64  0.627  0.628  0.534-  80 2.65  65 2.73  68 2.73  53 2.73  60 2.75  63 2.77  49 2.78  52 2.78
                            48 2.79  85 2.80  84 2.83  81 2.96
  65  0.621  0.876  0.534-  61 2.71  64 2.73  62 2.74  49 2.74  46 2.75  69 2.78  50 2.79  82 2.79
                            53 2.80  85 2.84  78 2.88  81 2.91
  66  0.874  0.127  0.534-  67 2.70  62 2.74  54 2.74  51 2.74  39 2.75  50 2.78  38 2.78  69 2.78
                            82 2.79  70 2.80  71 2.83  83 2.91
  67  0.878  0.373  0.537-  66 2.70  55 2.70  68 2.74  63 2.75  84 2.76  39 2.79  51 2.81  40 2.82
                            52 2.83  71 2.83  72 2.90  83 2.94
  68  0.875  0.622  0.534-  64 2.73  67 2.74  56 2.74  52 2.75  84 2.76  69 2.76  40 2.76  41 2.78
                            73 2.79  53 2.79  85 2.81  72 2.88
  69  0.874  0.874  0.533-  53 2.74  41 2.75  50 2.75  38 2.76  82 2.76  68 2.76  73 2.77  65 2.78
                            70 2.78  66 2.78  57 2.79  85 2.81
  70  0.997  0.996  0.601-   8 2.04  10 2.17  82 2.67  73 2.67  71 2.72  74 2.72  69 2.78  57 2.80
                            66 2.80  54 2.81
  71  0.003  0.243  0.604-   7 1.98   8 2.25  75 2.70  70 2.72  54 2.81  67 2.83  66 2.83  72 2.87
                            83 2.89  55 2.92
  72  0.010  0.505  0.605-   7 1.98   9 2.19  76 2.70  73 2.73  56 2.80  84 2.80  71 2.87  68 2.88
                            55 2.90  67 2.90
  73  0.994  0.753  0.601-   9 2.03  10 2.21  85 2.66  70 2.67  77 2.70  72 2.73  69 2.77  68 2.79
                            57 2.81  56 2.84
  74  0.244  0.004  0.604-   2 2.00   8 2.22  70 2.72  75 2.72  54 2.81  61 2.82  57 2.85  78 2.88
                            77 2.91  58 2.91
  75  0.247  0.251  0.598-   1 1.99  76 2.67  71 2.70  74 2.72  54 2.72  79 2.73  55 2.76  58 2.80
                            59 2.82
  76  0.255  0.494  0.598-   3 2.17  75 2.67  72 2.70  77 2.71  59 2.74  56 2.78  60 2.78  55 2.79
                            80 2.82
  77  0.239  0.739  0.605-  11 1.96   9 2.23  73 2.70  76 2.71  56 2.76  81 2.84  57 2.86  60 2.88
                            61 2.89  74 2.91
  78  0.506  0.012  0.605-   2 1.99   5 2.22  79 2.71  82 2.73  62 2.78  81 2.86  74 2.88  65 2.88
                            58 2.88  61 2.89
  79  0.496  0.258  0.598-   1 2.07  83 2.69  78 2.71  80 2.72  75 2.73  59 2.74  63 2.76  62 2.79
                            58 2.80
  80  0.511  0.506  0.597-  13 2.15  64 2.65  84 2.68  79 2.72  63 2.72  81 2.73  60 2.77  76 2.82
                            59 2.87
  81  0.498  0.752  0.608-   6 2.01  11 2.01  80 2.73  85 2.80  61 2.83  77 2.84  78 2.86  65 2.91
                            60 2.93  64 2.96
  82  0.754  0.996  0.601-   5 2.02  10 2.28  70 2.67  85 2.70  83 2.73  78 2.73  69 2.76  65 2.79
[...]
   -.295E+01 0.269E+01 0.302E+04   0.294E+01 -.271E+01 -.301E+04   0.278E-02 -.225E-01 -.328E+01   0.584E-02 0.418E-01 -.267E-01
   -.434E+01 -.445E+00 0.302E+04   0.434E+01 0.373E+00 -.301E+04   0.483E-01 0.398E-01 -.325E+01   0.390E-02 0.430E-01 0.796E-02
   -.316E+01 -.358E+01 0.302E+04   0.313E+01 0.360E+01 -.301E+04   0.557E-01 0.443E-01 -.330E+01   -.555E-02 -.418E-01 0.109E-01
   -.170E+01 0.714E+00 0.302E+04   0.160E+01 -.671E+00 -.301E+04   0.439E-01 0.508E-02 -.335E+01   -.305E-02 -.431E-01 -.241E-01
   0.117E+01 0.234E+01 0.302E+04   -.123E+01 -.237E+01 -.301E+04   -.177E-01 0.781E-02 -.332E+01   0.614E-01 0.500E-01 -.845E-03
   0.184E+01 0.818E+00 0.302E+04   -.193E+01 -.807E+00 -.301E+04   0.144E-01 -.607E-01 -.333E+01   0.640E-01 0.352E-01 0.323E-01
   0.133E+01 -.329E+01 0.302E+04   -.134E+01 0.323E+01 -.301E+04   -.415E-01 0.971E-01 -.333E+01   0.560E-01 -.501E-01 0.278E-01
   0.276E-02 0.801E+00 0.301E+04   -.883E-01 -.722E+00 -.301E+04   0.160E-01 -.752E-01 -.325E+01   0.543E-01 -.350E-01 -.535E-02
   0.106E+01 0.180E+01 0.140E+04   -.115E+01 -.186E+01 -.140E+04   0.552E-01 0.520E-01 0.532E-01   0.448E-01 0.120E-01 0.441E-01
   0.754E+01 0.157E+01 0.140E+04   -.758E+01 -.162E+01 -.140E+04   -.212E-01 -.206E-01 -.105E+00   0.506E-01 0.735E-01 0.378E-01
   0.839E+01 -.255E+01 0.140E+04   -.844E+01 0.260E+01 -.140E+04   -.374E-02 -.345E-01 0.876E-02   0.498E-01 -.166E-01 0.376E-01
   0.118E+01 -.857E+00 0.140E+04   -.121E+01 0.901E+00 -.140E+04   -.172E-01 0.257E-01 0.415E-01   0.499E-01 -.742E-01 0.448E-01
   -.208E+00 0.758E+01 0.139E+04   0.273E+00 -.760E+01 -.139E+04   -.124E-01 0.123E-01 -.105E+00   -.497E-01 0.211E-02 0.434E-01
   0.353E+01 0.592E+01 0.142E+04   -.346E+01 -.600E+01 -.142E+04   -.940E-02 -.156E-02 0.141E+00   -.585E-01 0.804E-01 0.339E-01
   0.214E+01 -.757E+01 0.142E+04   -.206E+01 0.755E+01 -.142E+04   -.306E-01 0.322E-01 0.771E-01   -.466E-01 -.232E-02 0.377E-01
   -.113E+01 -.614E+01 0.139E+04   0.115E+01 0.623E+01 -.139E+04   0.213E-01 -.924E-02 -.413E-01   -.345E-01 -.764E-01 0.405E-01
   -.516E+00 0.670E+01 0.139E+04   0.554E+00 -.669E+01 -.139E+04   0.230E-02 -.160E-02 -.417E-01   -.449E-01 -.925E-02 0.550E-01
   -.703E+01 0.423E+01 0.142E+04   0.706E+01 -.429E+01 -.142E+04   0.195E-01 -.179E-01 0.887E-01   -.456E-01 0.771E-01 0.502E-01
   -.598E+01 -.575E+01 0.142E+04   0.600E+01 0.576E+01 -.142E+04   0.282E-01 -.173E-01 0.109E+00   -.501E-01 0.630E-02 0.533E-01
   0.308E+00 -.469E+01 0.139E+04   -.242E+00 0.481E+01 -.139E+04   -.191E-01 -.333E-01 -.713E-01   -.509E-01 -.804E-01 0.559E-01
   -.230E+00 0.119E+01 0.140E+04   0.237E+00 -.122E+01 -.140E+04   -.588E-01 0.253E-01 0.121E+00   0.471E-01 0.473E-02 0.559E-01
   -.466E+01 -.717E+00 0.139E+04   0.452E+01 0.659E+00 -.139E+04   0.884E-01 -.127E-01 -.182E+00   0.567E-01 0.717E-01 0.445E-01
   -.423E+01 -.636E+00 0.139E+04   0.424E+01 0.646E+00 -.139E+04   -.397E-01 -.783E-02 -.535E-02   0.467E-01 -.420E-02 0.500E-01
   -.731E+00 -.547E+00 0.140E+04   0.652E+00 0.605E+00 -.140E+04   0.393E-01 0.122E-01 -.464E-01   0.359E-01 -.729E-01 0.483E-01
   0.645E+01 0.670E+01 -.242E+03   -.635E+01 -.656E+01 0.243E+03   -.101E+00 -.182E+00 -.158E+00   -.601E-02 0.440E-01 0.383E-01
   0.243E+02 -.286E+01 -.213E+03   -.244E+02 0.277E+01 0.213E+03   0.582E-02 0.457E-01 0.656E+00   -.411E-03 0.387E-01 0.172E-02
   0.788E+01 -.328E+01 -.246E+03   -.782E+01 0.329E+01 0.246E+03   -.667E-01 0.333E-01 -.102E+00   0.108E-01 -.465E-01 0.108E-01
   -.115E+02 0.111E+01 -.263E+03   0.116E+02 -.104E+01 0.263E+03   -.188E+00 -.309E-01 0.209E+00   0.468E-02 -.414E-01 0.404E-01
   -.244E+01 0.197E+02 -.219E+03   0.249E+01 -.199E+02 0.218E+03   -.840E-02 0.212E+00 0.867E+00   -.469E-01 0.394E-01 0.669E-01
   -.439E+01 -.194E+01 -.154E+03   0.445E+01 0.201E+01 0.153E+03   -.128E-01 -.123E+00 0.721E+00   -.494E-01 0.536E-01 0.366E-01
   -.510E+01 -.211E+02 -.245E+03   0.515E+01 0.213E+02 0.245E+03   0.403E-04 -.136E+00 0.503E+00   -.415E-01 -.412E-01 0.341E-01
[...]
   0.785E+02 -.877E+01 -.194E+04   -.784E+02 0.847E+01 0.193E+04   -.828E-01 0.320E+00 0.392E+00   0.119E-01 -.559E-02 -.706E-02
   0.163E+02 0.580E+01 -.187E+04   -.162E+02 -.611E+01 0.187E+04   -.190E+00 0.344E+00 0.150E+01   0.130E-01 -.305E-01 0.164E-01
   0.186E+02 0.752E+02 -.192E+04   -.182E+02 -.750E+02 0.192E+04   -.395E+00 -.185E+00 0.783E+00   -.117E-01 -.331E-02 0.378E-01
   0.607E+02 0.311E+02 -.182E+04   -.592E+02 -.298E+02 0.182E+04   -.153E+01 -.136E+01 0.845E+00   -.185E-01 0.309E-01 0.106E-01
   0.453E+02 -.336E+02 -.183E+04   -.451E+02 0.330E+02 0.182E+04   -.139E+00 0.559E+00 0.263E+01   -.840E-02 0.384E-02 -.620E-02
   0.213E+02 -.668E+02 -.190E+04   -.208E+02 0.666E+02 0.190E+04   -.564E+00 0.225E+00 0.494E+00   -.432E-02 -.300E-01 0.120E-01
   -.156E+02 0.517E+02 -.192E+04   0.152E+02 -.514E+02 0.192E+04   0.478E+00 -.245E+00 0.635E+00   -.105E-01 -.260E-02 0.600E-01
   -.702E+02 0.254E+02 -.184E+04   0.692E+02 -.245E+02 0.184E+04   0.920E+00 -.887E+00 0.165E+01   -.662E-02 0.348E-01 0.376E-01
   -.633E+02 -.254E+02 -.179E+04   0.639E+02 0.254E+02 0.179E+04   -.567E+00 -.342E-01 0.253E+01   -.171E-01 -.442E-03 0.235E-01
   -.904E+01 -.356E+02 -.193E+04   0.902E+01 0.354E+02 0.193E+04   0.374E-01 0.267E+00 -.372E+00   -.135E-01 -.358E-01 0.356E-01
   -.134E+02 0.799E-01 -.186E+04   0.130E+02 0.491E+00 0.185E+04   0.403E+00 -.578E+00 0.172E+01   0.120E-01 0.162E-02 0.558E-01
   -.748E+02 0.342E+01 -.197E+04   0.744E+02 -.324E+01 0.197E+04   0.395E+00 -.226E+00 0.508E+00   0.588E-02 0.313E-01 0.380E-01
   -.384E+02 -.770E+02 -.192E+04   0.383E+02 0.765E+02 0.192E+04   0.788E-01 0.512E+00 0.726E+00   0.449E-02 -.391E-02 0.196E-01
   -.314E+02 0.584E+02 -.188E+04   0.309E+02 -.592E+02 0.188E+04   0.492E+00 0.815E+00 0.875E+00   0.164E-02 -.324E-01 0.379E-01
   0.143E+02 0.122E+02 0.342E+03   -.156E-12 0.199E-12 0.102E-10   -.143E+02 -.122E+02 -.344E+03   -.188E-01 -.219E-01 0.216E+01

 POSITION                                       TOTAL-FORCE (eV/Angst)
      4.01209      3.31750     19.34148         0.009358      0.000199      0.004320
      4.11828      0.09438     19.51774         0.000513      0.000678      0.016324
      3.85177      4.55011     19.63295        -0.010173     -0.010933     -0.001573
      8.16021      4.19097     19.47799        -0.006994     -0.000600      0.005894
      7.19662      1.05426     19.32951         0.005455     -0.002003      0.013861
      6.98810      7.94491     19.50973        -0.001328      0.008620      0.006457
      0.05400      4.09867     19.50399         0.003783      0.001372      0.012050
      1.09521      1.07768     19.30146        -0.001094      0.000773     -0.002343
      1.01660      7.14222     19.32606        -0.000896      0.000084      0.008572
      9.70654      9.65552     19.24055        -0.000169      0.000532      0.009794
      3.96334      8.25774     19.56836         0.000556      0.002050      0.009813
      4.11011      0.42279     20.66282        -0.000980      0.000876     -0.015836
      4.90102      5.29387     19.92840         0.007439      0.000141      0.000646
      7.96592      4.28720     20.64892        -0.010431     -0.000352     -0.007722
      7.25291      0.98729     20.53374         0.009662     -0.001608     -0.012959
      7.08467      8.01307     20.69478        -0.007178      0.015376     -0.005511
      0.30957      4.08522     20.66790         0.010294     -0.001438     -0.013736
      1.05623      1.04166     20.50634        -0.004903     -0.001215      0.005548
      0.97042      7.19062     20.53059         0.000738     -0.002514     -0.010317
      9.72088      9.67602     20.45017        -0.001640     -0.000282     -0.019161
      3.92059      8.03572     20.73516         0.002334     -0.006075     -0.009542
      1.37275      1.37275     12.08797        -0.017345     -0.032616     -0.002098
      1.37275      4.11824     12.08797        -0.034821     -0.013355     -0.003707
      1.37275      6.86373     12.08797        -0.000044      0.023569     -0.010749
      1.37275      9.60922     12.08797         0.061818      0.005380      0.083360
      4.11824      1.37275     12.08797        -0.006093     -0.058840      0.041696
      4.11824      4.11824     12.08797         0.028709      0.021876     -0.022615
      4.11824      6.86373     12.08797         0.008649      0.072430      0.028918
      4.11824      9.60922     12.08797        -0.007980      0.012906     -0.144794
      6.86373      1.37275     12.08797         0.003125     -0.000981     -0.012252
      6.86373      4.11824     12.08797         0.045730      0.009968      0.030193
      6.86373      6.86373     12.08797         0.022411      0.014150     -0.003071
      6.86373      9.60922     12.08797        -0.060189      0.004299      0.028330
      9.60922      1.37275     12.08797        -0.012050      0.025856      0.028796
      9.60922      4.11824     12.08797        -0.003685     -0.013615     -0.123470
      9.60922      6.86373     12.08797         0.003501     -0.012441      0.015160
      9.60922      9.60922     12.08797        -0.015044     -0.031003      0.066448
     10.98078     10.97854     14.05195        -0.000070     -0.001700      0.000437
     10.97026      2.74067     14.04720         0.001845     -0.001401     -0.000268
     10.97424      5.48662     14.04280        -0.001598     -0.001204      0.000506
      0.00309      8.22845     14.05293         0.000536     -0.000828     -0.000875
      2.74841     10.96451     14.05733        -0.000672      0.000486     -0.000706
      2.73642      2.73412     14.02516        -0.000720      0.000251      0.001593
      2.73959      5.50990     14.03038         0.000615      0.002419     -0.000074
      2.75416      8.24899     14.05999         0.000133      0.000050     -0.000296
      5.48277     10.96991     14.05215         0.000142     -0.001459      0.000007
      5.50203      2.73977     14.03258         0.000612     -0.000049      0.002342
      5.50883      5.51789     14.03130        -0.003092     -0.000831      0.000335
      5.48230      8.26087     14.05709        -0.000035      0.000437     -0.000243
      8.22797      0.00087     14.04880        -0.001289     -0.000493     -0.000353
      8.24473      2.74675     14.05732        -0.002308     -0.000841     -0.000519
      8.25804      5.48374     14.05274         0.002427     -0.000073     -0.000437
      8.22852      8.23300     14.05175         0.000052     -0.000243      0.001796
      1.36359      1.36424     16.02677         0.001007      0.000775      0.001966
      1.35240      4.11346     15.95460         0.000349     -0.002913      0.002316
      1.37339      6.85699     16.02918         0.001611     -0.000295      0.001606
      1.39826      9.60075     16.02262         0.000060     -0.001740      0.001305
      4.11632      1.34867     15.96544        -0.000436      0.002189      0.001242
      4.12230      4.13914     15.91414         0.000190      0.000643     -0.000076
      4.13338      6.90808     15.99997        -0.001271     -0.001307      0.000897
[...]
      0.02795      2.67357     18.12519         0.000956     -0.001288     -0.000613
      0.10489      5.54394     18.14670        -0.002270     -0.002533      0.001546
     10.92000      8.27059     18.02970         0.001026      0.001455      0.001025
      2.68148      0.04451     18.13351        -0.000047     -0.001338      0.000611
      2.71748      2.75735     17.93698        -0.002889     -0.004306     -0.002248
      2.79766      5.42392     17.94293        -0.002232      0.001278      0.002697
      2.62954      8.12111     18.13621        -0.001560     -0.000369      0.002782
      5.55609      0.13378     18.14835        -0.000079     -0.001619      0.003462
      5.44244      2.83448     17.93433         0.002246     -0.003127     -0.004093
      5.61244      5.55206     17.91585         0.000413      0.000773     -0.002452
      5.46928      8.25678     18.22930        -0.003415     -0.001797      0.000016
      8.27863     10.93751     18.01727         0.002000     -0.000547     -0.001301
      8.11618      2.67316     18.17143        -0.001099      0.000067     -0.000656
      8.28947      5.50450     18.05073         0.000070      0.000531     -0.002315
      8.25853      8.23779     18.05679        -0.003597     -0.001119      0.000215
    total drift:                                0.009541      0.000632      0.007213

  FREE ENERGIE OF THE ION-ELECTRON SYSTEM (eV)
  free  energy   TOTEN  =      -487.48581307 eV

  energy  without entropy=     -487.33144763  energy(sigma->0) =     -487.43435792

 d Force = 0.7638332E-04[ 0.549E-04, 0.979E-04]  d Energy = 0.4006889E-04 0.363E-04
 d Force =-0.8177313E+00[-0.818E+00,-0.818E+00]  d Ewald  =-0.8177320E+00 0.647E-06

 Conjugate gradient step on ions:
 trial-energy change:   -0.000040  1 .order   -0.000076   -0.000098   -0.000055
  (g-gl).g = 0.301E-03      g.g   = 0.281E-03  gl.gl    = 0.452E-03
 g(Force)  = 0.281E-03   g(Stress)= 0.000E+00 ortho     = 0.463E-05
 gamma     =   0.66657
 trial     =   0.34481
 opt step  =   0.78407  (harmonic =   0.78407) maximal distance =0.00140210
 next E    =  -487.485884   (d E  =  -0.00011)

 reached required accuracy - stopping structural energy minimisation

 total charge

[...]

 magnetization (x)

# of ion       s       p       d       tot
    1        0.000  -0.001   0.000  -0.001
    2        0.000  -0.001   0.000  -0.001
    3       -0.000  -0.000   0.000  -0.000
    4        0.000  -0.001   0.000  -0.000
    5        0.000  -0.001   0.000  -0.000
    6        0.000  -0.000   0.000   0.000
    7        0.000  -0.001   0.000  -0.001
    8        0.000  -0.000   0.000  -0.000
    9        0.000  -0.000   0.000  -0.000
   10       -0.000   0.000   0.000   0.000
   11        0.000  -0.001   0.000  -0.001
   12       -0.000  -0.001   0.000  -0.001
   13        0.000   0.002   0.000   0.002
   14       -0.000  -0.001   0.000  -0.001
   15       -0.000  -0.001   0.000  -0.001
   16       -0.000  -0.000   0.000  -0.000
   17       -0.000  -0.001   0.000  -0.001
   18       -0.000  -0.001   0.000  -0.001
   19       -0.000  -0.001   0.000  -0.001
   20       -0.000   0.000   0.000   0.000
   21       -0.000  -0.001   0.000  -0.001
   22       -0.000  -0.001   0.037   0.037
   23       -0.000  -0.001   0.047   0.046
   24       -0.000  -0.001   0.039   0.039
   25       -0.000  -0.000   0.037   0.036
   26       -0.000  -0.000   0.046   0.045
   27       -0.000  -0.001   0.044   0.043
   28       -0.000  -0.000   0.047   0.047
   29       -0.000  -0.001   0.039   0.039
   30        0.000  -0.000   0.038   0.038
   31       -0.000  -0.000   0.047   0.047
   32       -0.000  -0.001   0.038   0.037
   33       -0.000  -0.000   0.039   0.038
   34       -0.000  -0.000   0.038   0.037
   35       -0.000  -0.001   0.039   0.038
   36       -0.000  -0.000   0.040   0.039
   37       -0.000  -0.000   0.029   0.029
   38       -0.000  -0.001   0.033   0.032
   39       -0.000  -0.001   0.042   0.041
   40       -0.000  -0.001   0.042   0.041
   41       -0.000  -0.001   0.032   0.031
   42       -0.000  -0.001   0.039   0.039
   43       -0.000  -0.001   0.051   0.050
   44       -0.000  -0.001   0.050   0.049
   45       -0.000  -0.001   0.041   0.040
   46       -0.000  -0.001   0.042   0.041
   47       -0.000  -0.001   0.049   0.048
   48       -0.000  -0.001   0.050   0.049
   49       -0.000  -0.001   0.041   0.040
   50       -0.000  -0.001   0.034   0.034
   51       -0.000  -0.001   0.038   0.037
   52       -0.000  -0.001   0.040   0.039
   53       -0.000  -0.001   0.033   0.032
   54       -0.000  -0.001   0.020   0.019
   55       -0.000  -0.001   0.039   0.038
   56       -0.000  -0.001   0.021   0.020
   57       -0.000  -0.001   0.025   0.024
   58       -0.000  -0.001   0.036   0.036
   59       -0.000  -0.001   0.036   0.035
   60       -0.000  -0.001   0.036   0.035
[...]
   71       -0.000  -0.000   0.003   0.002
   72       -0.000  -0.000   0.002   0.002
   73       -0.000  -0.000   0.002   0.001
   74       -0.000  -0.000   0.003   0.002
   75       -0.000  -0.000   0.005   0.005
   76       -0.000  -0.000   0.008   0.008
   77       -0.000  -0.000   0.003   0.002
   78       -0.000  -0.000   0.003   0.003
   79       -0.000  -0.000   0.008   0.007
   80       -0.000  -0.000   0.015   0.015
   81       -0.000  -0.000   0.002   0.002
   82       -0.000  -0.000   0.002   0.002
   83       -0.000  -0.000   0.003   0.002
   84       -0.000  -0.000   0.004   0.004
   85       -0.000  -0.000   0.002   0.002
tot         -0.010  -0.046   1.790   1.735