 vasp.5.4.4.18Apr17-6-g9f103f2a35 (build May 01 2020 14:57:12) complex

 executed on             LinuxIFC date 2021.12.08  13:23:10

 INCAR:
 POTCAR:    PAW_PBE H 15Jun2001
 POTCAR:    PAW_PBE N 08Apr2002
 POTCAR:    PAW_PBE O 08Apr2002
 POTCAR:    PAW_PBE Pd 04Jan2005

 POTCAR:    PAW_PBE H 15Jun2001
   VRHFIN =H: ultrasoft test

   TITEL  = PAW_PBE H 15Jun2001
   POMASS =    1.000; ZVAL   =    1.000    mass and valenz
   ENMAX  =  250.000; ENMIN  =  200.000 eV

 POTCAR:    PAW_PBE N 08Apr2002
   VRHFIN =N: s2p3

   TITEL  = PAW_PBE N 08Apr2002
   POMASS =   14.001; ZVAL   =    5.000    mass and valenz
   ENMAX  =  400.000; ENMIN  =  300.000 eV

 POTCAR:    PAW_PBE O 08Apr2002
   VRHFIN =O: s2p4

   TITEL  = PAW_PBE O 08Apr2002
   POMASS =   16.000; ZVAL   =    6.000    mass and valenz
   ENMAX  =  400.000; ENMIN  =  300.000 eV

 POTCAR:    PAW_PBE Pd 04Jan2005
   VRHFIN =Pd : s1 d9

   TITEL  = PAW_PBE Pd 04Jan2005
   POMASS =  106.420; ZVAL   =   10.000    mass and valenz
   ENMAX  =  250.925; ENMIN  =  188.194 eV

 Optimization of the real space projectors (new method)

 maximal supplied QI-value         = 34.20
 optimisation between [QCUT,QGAM] = [  9.92, 20.18] = [ 27.55,114.04] Ry
 Optimized for a Real-space Cutoff    1.34 Angstroem

   l    n(q)    QCUT    max X(q) W(low)/X(q) W(high)/X(q)  e(spline)
   0      8     9.919    19.460    0.16E-03    0.20E-03    0.36E-06
   0      8     9.919    12.209    0.16E-03    0.20E-03    0.35E-06
   1      8     9.919     4.655    0.19E-03    0.46E-03    0.40E-06
 Optimization of the real space projectors (new method)

[...]

   l    n(q)    QCUT    max X(q) W(low)/X(q) W(high)/X(q)  e(spline)
   0      9    10.150    20.381    0.17E-03    0.18E-03    0.41E-06
   0      9    10.150    15.268    0.18E-03    0.20E-03    0.43E-06
   1      9    10.150     5.964    0.16E-03    0.20E-03    0.36E-06
   1      9    10.150     5.382    0.13E-03    0.16E-03    0.33E-06
 Optimization of the real space projectors (new method)

 maximal supplied QI-value         = 14.36
 optimisation between [QCUT,QGAM] = [ 10.20, 20.39] = [ 29.12,116.47] Ry
 Optimized for a Real-space Cutoff    1.55 Angstroem

   l    n(q)    QCUT    max X(q) W(low)/X(q) W(high)/X(q)  e(spline)
   2      9    10.197    59.108    0.12E-03    0.40E-04    0.11E-06
   2      9    10.197    58.101    0.12E-03    0.39E-04    0.12E-06
   0      9    10.197   102.235    0.41E-04    0.86E-05    0.83E-07
   0      9    10.197    58.388    0.37E-04    0.79E-05    0.78E-07
   1      9    10.197    22.191    0.25E-03    0.13E-03    0.84E-07
   1      9    10.197    15.590    0.21E-03    0.11E-03    0.74E-07
  PAW_PBE H 15Jun2001                   :
  PAW_PBE N 08Apr2002                   :
  PAW_PBE O 08Apr2002                   :
  PAW_PBE Pd 04Jan2005                  :

 POSCAR: H N O Pd
  positions in direct lattice
  velocities in cartesian coordinates
 exchange correlation table for  LEXCH =        8
   RHO(1)=    0.500       N(1)  =     2000
   RHO(2)=  100.500       N(2)  =     4000

 ion  position               nearest neighbor table
   1  0.378  0.583  0.670-   6 0.98
   2  0.377  0.228  0.675-   4 1.03
   3  0.511  0.608  0.684-   6 0.98
   4  0.375  0.190  0.644-   2 1.03   5 1.37  64 2.04  60 2.04
   5  0.374  0.066  0.649-   4 1.37  59 2.19  63 2.19
   6  0.454  0.541  0.678-   3 0.98   1 0.98  65 2.42
   7  0.125  0.125  0.403-   8 2.75  11 2.75  10 2.75  19 2.75  23 2.75  24 2.75  28 2.75  27 2.76

   8  0.125  0.375  0.403-   7 2.75   9 2.75  12 2.75  20 2.75  24 2.75  25 2.75  29 2.75  28 2.76

[...]

  23  0.000  1.000  0.468-  26 2.74  39 2.74  27 2.74  10 2.75  22 2.75  35 2.75  51 2.75  54 2.75
                             7 2.75  19 2.75  24 2.75  42 2.77
  24  0.000  0.250  0.468-  25 2.74  39 2.74  51 2.74  28 2.75  52 2.75   8 2.75  23 2.75  20 2.75
                            36 2.75   7 2.75  40 2.75  19 2.76
  25  1.000  0.500  0.468-  24 2.74  29 2.74  37 2.75  41 2.75  53 2.75  20 2.75  26 2.75  52 2.75
                             8 2.75  21 2.75   9 2.75  40 2.79
  26  0.000  0.750  0.468-  23 2.74  30 2.74  54 2.74  41 2.74  53 2.75  38 2.75  25 2.75  10 2.76
                            22 2.76   9 2.76  21 2.76  42 2.78
  27  0.250  1.000  0.468-  43 2.74  23 2.74  30 2.74  28 2.74  31 2.75  39 2.75  46 2.75  42 2.75
                            10 2.75  14 2.75   7 2.76  11 2.76
  28  0.250  0.250  0.468-  32 2.74  29 2.74  27 2.74  43 2.75  24 2.75  40 2.75  39 2.75  11 2.75
                             7 2.75  12 2.76  44 2.76   8 2.76
  29  0.250  0.499  0.468-  28 2.74  25 2.74  45 2.75  41 2.75  30 2.75  33 2.75   8 2.75  12 2.75
                            44 2.76   9 2.76  13 2.76  40 2.77
  30  0.250  0.750  0.468-  26 2.74  27 2.74  41 2.75  29 2.75  34 2.75  46 2.75   9 2.75  10 2.76
                            13 2.76  45 2.76  14 2.76  42 2.77
  31  0.500  1.000  0.468-  43 2.74  35 2.74  27 2.75  34 2.75  32 2.75  47 2.75  50 2.75  14 2.75
                            18 2.75  11 2.75  15 2.75  46 2.76
  32  0.500  0.250  0.468-  28 2.74  33 2.74  36 2.74  47 2.75  43 2.75  31 2.75  44 2.75  12 2.75
                            11 2.75  48 2.76  16 2.76  15 2.76
  33  0.500  0.500  0.468-  32 2.74  37 2.74  45 2.74  34 2.75  49 2.75  16 2.75  29 2.75  12 2.75
                            17 2.75  44 2.76  13 2.76  48 2.76
  34  0.500  0.750  0.468-  38 2.74  31 2.75  33 2.75  45 2.75  30 2.75  49 2.75  46 2.75  17 2.75
                            18 2.76  13 2.76  14 2.76  50 2.76
  35  0.750  1.000  0.468-  47 2.74  38 2.74  31 2.74  51 2.75  18 2.75  23 2.75  22 2.75  15 2.75
                            54 2.75  19 2.75  36 2.76  50 2.76
  36  0.749  0.251  0.468-  47 2.73  37 2.74  32 2.74  52 2.74  51 2.75  16 2.75  24 2.75  20 2.76
                            35 2.76  15 2.76  19 2.76  48 2.78
  37  0.750  0.500  0.468-  36 2.74  33 2.74  49 2.75  25 2.75  52 2.75  53 2.75  38 2.75  16 2.75
                            17 2.75  20 2.76  21 2.76  48 2.79
  38  0.750  0.750  0.468-  35 2.74  34 2.74  54 2.74  53 2.74  37 2.75  26 2.75  49 2.76  18 2.76
                            22 2.76  17 2.76  21 2.76  50 2.77
  39  0.124  0.125  0.533-  40 2.72  42 2.73  51 2.73  23 2.74  24 2.74  27 2.75  28 2.75  43 2.75
                            56 2.77  55 2.77  59 2.79  60 2.80
  40  0.126  0.373  0.534-  39 2.72  61 2.73  60 2.74  44 2.74  28 2.75  56 2.75  24 2.75  52 2.76
                            57 2.77  29 2.77  41 2.77  25 2.79
  41  0.125  0.625  0.533-  61 2.73  53 2.74  26 2.74  30 2.75  25 2.75  29 2.75  45 2.76  62 2.76
                            58 2.76  42 2.76  57 2.76  40 2.77
  42  0.126  0.876  0.534-  59 2.71  46 2.73  39 2.73  27 2.75  55 2.75  58 2.76  62 2.76  54 2.76
                            41 2.76  30 2.77  23 2.77  26 2.78
  43  0.375  0.124  0.533-  46 2.74  27 2.74  31 2.74  28 2.75  32 2.75  39 2.75  44 2.76  47 2.76
                            64 2.82  63 2.84  59 2.84  60 2.84
  44  0.375  0.375  0.533-  48 2.71  45 2.73  40 2.74  61 2.75  32 2.75  43 2.76  29 2.76  33 2.76
                            28 2.76  65 2.80  64 2.81  60 2.82
  45  0.376  0.624  0.533-  44 2.73  49 2.74  66 2.74  61 2.74  33 2.74  29 2.75  34 2.75  62 2.75
                            41 2.76  46 2.76  30 2.76  65 2.82
  46  0.375  0.875  0.533-  42 2.73  50 2.74  43 2.74  66 2.74  30 2.75  27 2.75  34 2.75  45 2.76
                            31 2.76  62 2.77  59 2.80  63 2.81
  47  0.626  0.125  0.533-  50 2.73  36 2.73  51 2.73  48 2.74  35 2.74  32 2.75  31 2.75  43 2.76
                            68 2.76  67 2.77  64 2.79  63 2.80
  48  0.622  0.374  0.534-  44 2.71  64 2.74  49 2.74  47 2.74  68 2.75  65 2.75  32 2.76  69 2.76
                            33 2.76  52 2.77  36 2.78  37 2.79
  49  0.625  0.624  0.533-  66 2.74  45 2.74  48 2.74  37 2.75  53 2.75  33 2.75  69 2.75  34 2.75
                            38 2.76  70 2.76  50 2.78  65 2.80
  50  0.624  0.877  0.534-  63 2.72  47 2.73  66 2.73  46 2.74  31 2.75  67 2.75  54 2.76  70 2.76
                            35 2.76  34 2.76  38 2.77  49 2.78
  51  0.875  0.125  0.533-  39 2.73  47 2.73  24 2.74  54 2.75  52 2.75  36 2.75  35 2.75  23 2.75
                            67 2.75  56 2.76  55 2.76  68 2.76
  52  0.875  0.375  0.533-  36 2.74  53 2.74  51 2.75  37 2.75  69 2.75  24 2.75  25 2.75  68 2.76
                            40 2.76  56 2.76  57 2.76  48 2.77
  53  0.875  0.625  0.533-  41 2.74  38 2.74  52 2.74  69 2.74  54 2.75  26 2.75  49 2.75  37 2.75
                            25 2.75  70 2.76  58 2.76  57 2.76
  54  0.875  0.875  0.533-  26 2.74  38 2.74  53 2.75  51 2.75  23 2.75  55 2.75  67 2.75  35 2.75
                            70 2.76  42 2.76  58 2.76  50 2.76
  55  0.998  0.000  0.598-  67 2.70  59 2.71  56 2.74  54 2.75  58 2.75  42 2.75  51 2.76  39 2.77

[...]

  59  0.245  0.996  0.600-   5 2.19  55 2.71  42 2.71  62 2.74  39 2.79  60 2.80  46 2.80  43 2.84
                            63 2.86
  60  0.245  0.251  0.600-   4 2.04  56 2.71  40 2.74  61 2.74  39 2.80  59 2.80  44 2.82  64 2.84
                            43 2.84
  61  0.248  0.501  0.597-  62 2.71  40 2.73  41 2.73  57 2.73  60 2.74  45 2.74  44 2.75  65 2.78

[...]

  63  0.505  0.997  0.600-   5 2.19  67 2.71  50 2.72  66 2.72  64 2.77  47 2.80  46 2.81  43 2.84
                            59 2.86
  64  0.504  0.249  0.600-   4 2.04  68 2.71  65 2.73  48 2.74  63 2.77  47 2.79  44 2.81  43 2.82
                            60 2.84
  65  0.501  0.498  0.601-   6 2.42  64 2.73  69 2.75  48 2.75  66 2.76  61 2.78  44 2.80  49 2.80
                            45 2.82
  66  0.500  0.749  0.597-  63 2.72  50 2.73  49 2.74  62 2.74  46 2.74  45 2.74  70 2.75  65 2.76

[...]

  70  0.750  0.750  0.598-  69 2.73  58 2.74  66 2.75  67 2.75  53 2.76  54 2.76  49 2.76  50 2.76

  LATTYP: Found a simple tetragonal cell.
 ALAT       =    10.9820000000
 C/A-ratio  =     2.7317428519

  Lattice vectors:

 A1 = (  10.9820000000,   0.0000000000,   0.0000000000)
 A2 = (   0.0000000000,  10.9820000000,   0.0000000000)
 A3 = (   0.0000000000,   0.0000000000,  30.0000000000)

Analysis of symmetry for initial positions (statically):
 Subroutine PRICEL returns:
 Original cell was already a primitive cell.

 Routine SETGRP: Setting up the symmetry group for a
 simple tetragonal supercell.

 Subroutine GETGRP returns: Found  1 space group operations
 (whereof  1 operations were pure point group operations)
 out of a pool of 16 trial point group operations.

The static configuration has the point symmetry C_1 .

Analysis of symmetry for dynamics (positions and initial velocities):
 Subroutine PRICEL returns:
 Original cell was already a primitive cell.

[...]

The dynamic configuration has the point symmetry C_1 .

Analysis of constrained symmetry for selective dynamics:
 Subroutine PRICEL returns:
 Original cell was already a primitive cell.

[...]

The constrained configuration has the point symmetry C_1 .

Analysis of structural, dynamic, and magnetic symmetry:
 Subroutine PRICEL returns:
 Original cell was already a primitive cell.

 Routine SETGRP: Setting up the symmetry group for a
[...]
   0.164E+00 -.100E+01 0.269E+04   -.177E+00 0.103E+01 -.269E+04   0.604E-04 -.221E-01 -.331E+01   -.731E-04 0.869E-02 0.713E-01
   -.116E+00 -.121E+01 0.269E+04   0.110E+00 0.119E+01 -.268E+04   0.514E-02 0.602E-01 -.318E+01   -.208E-03 -.448E-02 0.745E-01
   -.126E+00 0.313E+01 0.269E+04   0.142E+00 -.309E+01 -.269E+04   -.848E-02 -.732E-01 -.331E+01   -.869E-04 -.967E-02 0.677E-01
   0.475E+01 0.458E+01 0.980E+03   -.476E+01 -.460E+01 -.980E+03   0.344E-01 0.289E-01 0.480E-01   -.134E-01 -.771E-02 0.188E+00
   0.639E+01 -.339E+01 0.978E+03   -.636E+01 0.342E+01 -.978E+03   -.186E-01 -.344E-01 -.663E-01   -.148E-01 0.163E-01 0.187E+00
   0.250E+01 -.165E+01 0.972E+03   -.254E+01 0.171E+01 -.973E+03   0.503E-01 -.684E-01 0.151E-01   -.139E-01 0.748E-02 0.198E+00
   0.272E+01 0.102E+01 0.966E+03   -.271E+01 -.103E+01 -.966E+03   0.823E-02 0.308E-01 -.120E+00   -.134E-01 -.142E-01 0.197E+00
   0.700E+01 0.604E+01 0.987E+03   -.698E+01 -.603E+01 -.987E+03   -.110E-01 -.266E-02 -.952E-01   -.168E-01 -.109E-01 0.187E+00
   0.706E+01 -.406E+01 0.988E+03   -.707E+01 0.404E+01 -.989E+03   0.381E-01 0.156E-02 -.640E-01   -.173E-01 0.156E-01 0.175E+00
   0.712E+01 -.403E+01 0.980E+03   -.713E+01 0.404E+01 -.980E+03   0.207E-01 -.189E-01 -.145E-01   -.152E-01 0.925E-02 0.188E+00
   0.571E+01 0.209E+01 0.979E+03   -.574E+01 -.210E+01 -.979E+03   0.437E-01 0.206E-01 0.233E-01   -.147E-01 -.145E-01 0.183E+00
   -.551E+01 0.582E+01 0.991E+03   0.551E+01 -.580E+01 -.991E+03   -.142E-01 -.907E-02 -.416E-01   0.112E-01 -.747E-02 0.185E+00
   -.659E+01 -.318E+01 0.988E+03   0.659E+01 0.316E+01 -.988E+03   -.145E-01 0.220E-02 -.716E-01   0.151E-01 0.158E-01 0.180E+00
   -.522E+01 -.381E+01 0.986E+03   0.522E+01 0.383E+01 -.986E+03   -.126E-01 -.288E-01 -.502E-01   0.110E-01 0.839E-02 0.191E+00
   -.461E+01 0.117E+01 0.979E+03   0.463E+01 -.119E+01 -.979E+03   -.294E-01 0.382E-01 -.846E-02   0.118E-01 -.134E-01 0.186E+00
   -.628E+01 0.379E+01 0.981E+03   0.627E+01 -.382E+01 -.981E+03   -.916E-02 0.408E-01 0.186E-01   0.155E-01 -.553E-02 0.187E+00
   -.701E+01 -.346E+01 0.975E+03   0.697E+01 0.347E+01 -.975E+03   0.251E-01 -.270E-01 -.668E-01   0.138E-01 0.156E-01 0.182E+00
   -.436E+01 -.131E+01 0.971E+03   0.440E+01 0.138E+01 -.972E+03   -.601E-01 -.717E-01 0.395E-02   0.133E-01 0.808E-02 0.194E+00
   -.396E+01 0.163E+01 0.967E+03   0.396E+01 -.161E+01 -.967E+03   -.186E-01 -.523E-02 -.697E-01   0.145E-01 -.129E-01 0.186E+00
   0.250E+02 0.314E+01 -.765E+03   -.250E+02 -.311E+01 0.764E+03   0.348E-01 -.375E-01 0.190E+00   -.235E-01 0.244E-02 0.182E+00
   0.305E+02 -.159E+02 -.789E+03   -.303E+02 0.154E+02 0.789E+03   -.243E+00 0.418E+00 -.315E+00   -.203E-01 0.197E-01 0.177E+00
   0.213E+02 -.478E+01 -.782E+03   -.213E+02 0.479E+01 0.782E+03   0.829E-02 0.112E-02 0.914E-01   -.181E-01 0.874E-04 0.179E+00
   0.273E+02 0.179E+02 -.802E+03   -.270E+02 -.175E+02 0.802E+03   -.289E+00 -.368E+00 -.353E+00   -.169E-01 -.159E-01 0.191E+00
   0.336E+01 0.497E+01 -.721E+03   -.337E+01 -.505E+01 0.720E+03   0.137E-01 0.826E-01 0.112E+01   -.644E-02 -.590E-03 0.187E+00
   0.527E+01 -.112E+02 -.754E+03   -.520E+01 0.114E+02 0.754E+03   -.684E-01 -.217E+00 0.355E+00   -.649E-02 0.128E-01 0.181E+00
   0.460E+01 -.592E+01 -.758E+03   -.458E+01 0.591E+01 0.758E+03   -.118E-01 0.148E-01 0.865E-01   -.678E-02 -.204E-02 0.181E+00
   0.426E+01 0.130E+02 -.763E+03   -.427E+01 -.131E+02 0.762E+03   0.173E-01 0.787E-01 0.234E+00   -.705E-02 -.234E-01 0.193E+00
   -.262E+02 0.401E+01 -.755E+03   0.262E+02 -.396E+01 0.755E+03   -.434E-01 -.528E-01 0.183E+00   0.230E-01 0.510E-02 0.188E+00
   -.338E+02 -.117E+02 -.794E+03   0.334E+02 0.115E+02 0.794E+03   0.409E+00 0.204E+00 -.490E+00   0.229E-01 0.118E-01 0.187E+00
   -.224E+02 -.566E+01 -.781E+03   0.223E+02 0.558E+01 0.781E+03   0.509E-01 0.849E-01 0.708E-01   0.240E-01 0.388E-02 0.183E+00
   -.285E+02 0.144E+02 -.788E+03   0.283E+02 -.141E+02 0.788E+03   0.263E+00 -.336E+00 -.327E+00   0.203E-01 -.182E-01 0.186E+00
   -.202E+01 0.155E+01 -.783E+03   0.202E+01 -.153E+01 0.783E+03   0.597E-04 -.263E-01 0.104E-01   0.206E-02 0.582E-02 0.181E+00
   -.344E+01 -.640E+01 -.794E+03   0.343E+01 0.638E+01 0.794E+03   0.454E-02 0.737E-02 0.453E-01   -.714E-03 0.119E-01 0.181E+00
   -.434E+01 -.348E+01 -.796E+03   0.433E+01 0.349E+01 0.796E+03   0.492E-02 -.172E-02 0.767E-01   0.166E-03 -.964E-03 0.182E+00
   -.268E+01 0.807E+01 -.797E+03   0.269E+01 -.809E+01 0.797E+03   -.507E-02 0.390E-01 0.760E-01   -.358E-03 -.172E-01 0.184E+00
   0.409E+02 0.175E+02 -.255E+04   -.409E+02 -.175E+02 0.255E+04   0.101E-01 0.932E-02 0.320E+01   -.588E-02 -.496E-02 0.528E-01
   0.464E+02 -.104E+02 -.255E+04   -.463E+02 0.104E+02 0.255E+04   -.146E+00 -.220E-01 0.322E+01   -.665E-02 0.101E-01 0.535E-01
   0.239E+02 -.109E+02 -.256E+04   -.239E+02 0.110E+02 0.255E+04   0.261E-01 -.407E-01 0.316E+01   -.644E-02 0.790E-02 0.453E-01
   0.209E+02 0.339E+01 -.256E+04   -.209E+02 -.344E+01 0.256E+04   0.676E-01 0.592E-01 0.319E+01   -.103E-01 -.803E-02 0.445E-01
   0.136E+03 0.101E+03 -.243E+04   -.137E+03 -.102E+03 0.243E+04   0.970E+00 0.773E+00 0.287E+01   -.116E-01 -.711E-02 0.700E-01
   0.166E+03 -.839E+02 -.241E+04   -.165E+03 0.839E+02 0.241E+04   -.562E+00 0.299E-01 0.660E+00   -.137E-01 0.729E-02 0.683E-01
   0.737E+02 -.254E+02 -.247E+04   -.741E+02 0.256E+02 0.246E+04   0.359E+00 -.229E+00 0.293E+01   -.143E-01 0.126E-01 0.577E-01
   0.547E+02 0.349E+01 -.252E+04   -.546E+02 -.376E+01 0.251E+04   -.105E+00 0.270E+00 0.293E+01   -.108E-01 -.779E-02 0.633E-01
   -.129E+03 0.998E+02 -.243E+04   0.130E+03 -.101E+03 0.242E+04   -.102E+01 0.778E+00 0.289E+01   0.401E-02 -.465E-02 0.726E-01
   -.154E+03 -.689E+02 -.239E+04   0.154E+03 0.686E+02 0.239E+04   0.551E+00 0.207E+00 0.722E+00   0.159E-01 0.576E-02 0.732E-01
   -.545E+02 -.131E+02 -.243E+04   0.548E+02 0.130E+02 0.242E+04   -.372E+00 0.183E+00 0.350E+01   0.108E-01 0.951E-02 0.499E-01
   -.348E+02 -.134E+02 -.247E+04   0.348E+02 0.137E+02 0.246E+04   -.192E-01 -.245E+00 0.300E+01   0.898E-02 -.380E-02 0.657E-01
   -.481E+02 0.160E+02 -.255E+04   0.481E+02 -.160E+02 0.254E+04   -.207E-02 0.218E-01 0.317E+01   0.104E-01 -.913E-02 0.546E-01
   -.594E+02 -.367E+01 -.254E+04   0.593E+02 0.367E+01 0.254E+04   0.123E+00 -.339E-02 0.324E+01   0.180E-01 0.674E-02 0.684E-01
   -.532E+02 -.715E+01 -.253E+04   0.534E+02 0.720E+01 0.253E+04   -.175E+00 -.661E-01 0.315E+01   0.159E-01 0.770E-02 0.516E-01
   -.403E+02 -.595E+01 -.255E+04   0.403E+02 0.589E+01 0.254E+04   -.185E-01 0.766E-01 0.311E+01   0.106E-01 -.949E-02 0.633E-01
   0.409E+01 -.559E+02 0.183E+02   -.121E-12 0.764E-13 -.136E-11   -.408E+01 0.559E+02 -.261E+02   -.175E-01 0.922E-02 0.785E+01

 POSITION                                       TOTAL-FORCE (eV/Angst)
      4.15078      6.39763     20.09239         0.012981      0.000655      0.014093
      4.13855      2.50528     20.25678         0.000650     -0.010072     -0.009933
      5.61879      6.67340     20.50700         0.015570      0.005175      0.000998
      4.11535      2.08675     19.31212         0.007624     -0.008787      0.008900
      4.11009      0.72463     19.46955        -0.000817      0.018366     -0.003545
      4.99032      5.94335     20.33490        -0.001413     -0.003419     -0.003163
      1.37275      1.37275     12.08797        -0.015381     -0.007065     -0.011871
      1.37275      4.11824     12.08797         0.005743     -0.000961      0.018368
      1.37275      6.86373     12.08797         0.000189      0.003461      0.013989
      1.37275      9.60922     12.08797         0.004690     -0.001151     -0.002856
      4.11824      1.37275     12.08797        -0.001587     -0.012718     -0.022215
      4.11824      4.11824     12.08797        -0.002938      0.009813      0.018239
      4.11824      6.86373     12.08797         0.000802     -0.013626      0.020470
      4.11824      9.60922     12.08797         0.000222     -0.011952      0.025086
      6.86373      1.37275     12.08797         0.012247      0.013688      0.012414
      6.86373      4.11824     12.08797        -0.008702      0.001190      0.007440
      6.86373      6.86373     12.08797        -0.001995      0.003248      0.007703
      6.86373      9.60922     12.08797        -0.009864     -0.008655      0.014469
      9.60922      1.37275     12.08797        -0.000802      0.009349     -0.005953
      9.60922      4.11824     12.08797        -0.012454      0.013683     -0.000775
      9.60922      6.86373     12.08797        -0.001327      0.031815     -0.062013
      9.60922      9.60922     12.08797         0.007561     -0.041487     -0.024428
      0.00190     10.97823     14.03479         0.001379     -0.002233     -0.001403
      0.00162      2.74900     14.04104        -0.002815      0.002635     -0.003023
     10.98047      5.49028     14.03904        -0.000814     -0.002401     -0.004824
      0.00155      8.23992     14.04774         0.001042      0.003800     -0.002382
      2.74531     10.97914     14.04203        -0.001532     -0.000351      0.000248
      2.74677      2.74239     14.04207         0.002821     -0.001190      0.000159
      2.74261      5.48517     14.04505        -0.000069     -0.000819     -0.002389
      2.74327      8.23535     14.04214        -0.002138      0.000425      0.000883
      5.48998     10.98068     14.03885         0.000873      0.000057     -0.000270
      5.48734      2.74609     14.04561        -0.002609      0.000547      0.001278
      5.49333      5.48616     14.04164         0.001997     -0.001780     -0.000404
      5.49378      8.23416     14.04628         0.001594      0.000642     -0.000615
      8.23574     10.97947     14.03589        -0.003961      0.001271      0.000240
      8.22897      2.75445     14.04469         0.000252      0.000618      0.001564
      8.23392      5.49100     14.04281        -0.003654     -0.000159      0.000887
      8.23443      8.23934     14.04702        -0.001723      0.000436      0.002442
      1.36044      1.36793     15.98134         0.002883      0.001656     -0.001685
      1.38257      4.09275     16.00916         0.001145     -0.001061     -0.002193
      1.36739      6.86276     15.98300         0.005584      0.003794      0.002093
      1.38936      9.62286     16.01633         0.001066     -0.000361     -0.001439
      4.11498      1.36197     15.98255        -0.003232      0.001226      0.000318
      4.12119      4.11658     15.99982        -0.001539     -0.004600     -0.000515
      4.12389      6.85085     15.98653        -0.003356      0.001664      0.003334
      4.11561      9.60657     15.99443        -0.002369     -0.001682      0.001434
      6.87455      1.37340     15.97623         0.002523     -0.000030     -0.001289
      6.83408      4.11131     16.02869         0.002805     -0.000097      0.000055
      6.86228      6.85154     15.99421         0.003874      0.003537      0.002333
      6.85188      9.62709     16.00741         0.001225     -0.001289     -0.001265
      9.60931      1.37322     15.97608        -0.003016      0.003048      0.000306
      9.60571      4.11880     15.98682        -0.001505     -0.003203      0.002807
      9.60952      6.86313     15.98405        -0.006904      0.003736      0.005108
      9.61144      9.60926     15.98535        -0.003507     -0.002072     -0.000151
     10.95889      0.00207     17.94967        -0.002128      0.002962     -0.004242
     10.96662      2.73784     17.94947         0.001244      0.001218     -0.003994
     10.97640      5.49232     17.94887         0.000934      0.001014     -0.003553
     10.97945      8.23115     17.94575        -0.001361     -0.000157     -0.004854
      2.68568     10.94396     17.99860        -0.000307      0.002475     -0.001263
      2.69380      2.75761     18.00928         0.001596     -0.001830      0.000613
      2.72487      5.49694     17.92072         0.001066      0.002583     -0.003729
      2.75407      8.20721     17.95211        -0.000094     -0.002798     -0.001862
      5.55061     10.95202     17.99969        -0.002000      0.002659      0.000699
      5.53485      2.73514     18.00261        -0.007177     -0.004334      0.008852
      5.50631      5.46877     18.02042        -0.000784      0.002614     -0.002289
      5.49135      8.23053     17.91875        -0.000457      0.000135     -0.001343
      8.25814      0.00378     17.94515         0.001113     -0.000210     -0.003871
      8.24550      2.74035     17.94771         0.007397     -0.002621      0.003799
      8.25747      5.49791     17.94437         0.003192      0.001120     -0.001634
      8.23985      8.23323     17.94610         0.000451     -0.001143      0.001613
    total drift:                                0.002048     -0.008791     -0.003494

  FREE ENERGIE OF THE ION-ELECTRON SYSTEM (eV)
  free  energy   TOTEN  =      -369.18282737 eV

  energy  without entropy=     -369.03760353  energy(sigma->0) =     -369.13441942

 d Force = 0.5554125E-04[ 0.408E-04, 0.703E-04]  d Energy = 0.6585767E-04-0.103E-04
 d Force =-0.1424989E+01[-0.142E+01,-0.143E+01]  d Ewald  =-0.1424990E+01 0.544E-06

 Conjugate gradient step on ions:
 trial-energy change:   -0.000066  1 .order   -0.000056   -0.000070   -0.000041
  (g-gl).g = 0.217E-03      g.g   = 0.248E-03  gl.gl    = 0.465E-03
 g(Force)  = 0.248E-03   g(Stress)= 0.000E+00 ortho     = 0.109E-04
 gamma     =   0.46729
 trial     =   0.27758
 opt step  =   0.66149  (harmonic =   0.66149) maximal distance =0.00099212
 next E    =  -369.182845   (d E  =  -0.00008)

 reached required accuracy - stopping structural energy minimisation

 total charge

[...]

 magnetization (x)

# of ion       s       p       d       tot
    1       -0.000   0.000   0.000  -0.000
    2        0.000  -0.000   0.000   0.000
    3       -0.000   0.000   0.000   0.000
    4       -0.000  -0.009   0.000  -0.009
    5        0.000   0.001   0.000   0.001
    6        0.000   0.004   0.000   0.005
    7       -0.000  -0.003   0.206   0.203
    8       -0.001  -0.003   0.204   0.200
    9       -0.001  -0.003   0.206   0.202
   10       -0.000  -0.003   0.209   0.206
   11       -0.000  -0.003   0.203   0.199
   12       -0.000  -0.003   0.211   0.208
   13       -0.001  -0.004   0.195   0.190
   14       -0.001  -0.003   0.206   0.201
   15       -0.001  -0.003   0.203   0.198
   16       -0.000  -0.003   0.209   0.205
   17       -0.000  -0.003   0.209   0.206
   18       -0.001  -0.003   0.208   0.204
   19       -0.000  -0.004   0.196   0.192
   20       -0.001  -0.003   0.211   0.208
   21        0.002  -0.003   0.208   0.207
   22       -0.000  -0.003   0.216   0.213
   23       -0.002  -0.006   0.297   0.290
   24       -0.002  -0.006   0.297   0.289
   25       -0.002  -0.006   0.286   0.279
   26       -0.002  -0.006   0.283   0.276
   27       -0.002  -0.006   0.292   0.285
   28       -0.001  -0.006   0.297   0.290
   29       -0.002  -0.006   0.287   0.280
   30       -0.002  -0.006   0.300   0.293
   31       -0.002  -0.006   0.293   0.285
   32       -0.002  -0.006   0.299   0.292
   33       -0.002  -0.006   0.294   0.287
   34       -0.002  -0.006   0.294   0.287
   35       -0.002  -0.006   0.296   0.289
   36       -0.002  -0.006   0.292   0.285
   37       -0.002  -0.005   0.287   0.280
   38       -0.002  -0.006   0.288   0.281
   39       -0.001  -0.005   0.280   0.274
   40       -0.002  -0.006   0.231   0.224
   41       -0.002  -0.005   0.286   0.279
   42       -0.002  -0.006   0.247   0.240
   43       -0.001  -0.005   0.285   0.280
   44       -0.001  -0.005   0.267   0.261
   45       -0.002  -0.005   0.279   0.272
   46       -0.001  -0.005   0.282   0.275
   47       -0.001  -0.005   0.276   0.269
   48       -0.002  -0.006   0.230   0.223
   49       -0.002  -0.005   0.290   0.283
   50       -0.002  -0.006   0.247   0.240
   51       -0.002  -0.005   0.287   0.279
   52       -0.002  -0.005   0.282   0.275
   53       -0.001  -0.006   0.302   0.295
   54       -0.002  -0.005   0.291   0.284
   55       -0.000  -0.003   0.183   0.179
   56       -0.000  -0.003   0.166   0.162
   57       -0.001  -0.003   0.182   0.178
   58       -0.001  -0.003   0.182   0.179
   59       -0.002  -0.003   0.121   0.116
   60       -0.002  -0.004   0.063   0.057
   61       -0.001  -0.003   0.175   0.171
   62       -0.001  -0.003   0.180   0.176
   63       -0.002  -0.003   0.121   0.116
   64       -0.002  -0.004   0.066   0.060
   65       -0.002  -0.003   0.171   0.167
   66       -0.001  -0.003   0.180   0.176
   67       -0.000  -0.003   0.183   0.179
   68       -0.000  -0.004   0.171   0.167
   69       -0.001  -0.003   0.192   0.188
   70       -0.001  -0.003   0.186   0.182
tot         -0.074  -0.283  14.867  14.511