 vasp.5.4.4.18Apr17-6-g9f103f2a35 (build May 01 2020 14:57:12) complex

 executed on             LinuxIFC date 2021.10.23  15:54:10

 INCAR:
 POTCAR:    PAW_PBE Pd 04Jan2005
 POTCAR:    PAW_PBE N 08Apr2002
 POTCAR:    PAW_PBE O 08Apr2002
 POTCAR:    PAW_PBE H 15Jun2001

 POTCAR:    PAW_PBE Pd 04Jan2005
   VRHFIN =Pd : s1 d9

   TITEL  = PAW_PBE Pd 04Jan2005
   POMASS =  106.420; ZVAL   =   10.000    mass and valenz
   ENMAX  =  250.925; ENMIN  =  188.194 eV

 POTCAR:    PAW_PBE N 08Apr2002
   VRHFIN =N: s2p3

   TITEL  = PAW_PBE N 08Apr2002
   POMASS =   14.001; ZVAL   =    5.000    mass and valenz
   ENMAX  =  400.000; ENMIN  =  300.000 eV

 POTCAR:    PAW_PBE O 08Apr2002
   VRHFIN =O: s2p4

   TITEL  = PAW_PBE O 08Apr2002
   POMASS =   16.000; ZVAL   =    6.000    mass and valenz
   ENMAX  =  400.000; ENMIN  =  300.000 eV

 POTCAR:    PAW_PBE H 15Jun2001
   VRHFIN =H: ultrasoft test

   TITEL  = PAW_PBE H 15Jun2001
   POMASS =    1.000; ZVAL   =    1.000    mass and valenz
   ENMAX  =  250.000; ENMIN  =  200.000 eV

 Optimization of the real space projectors (new method)

 maximal supplied QI-value         = 14.36
 optimisation between [QCUT,QGAM] = [ 10.20, 20.39] = [ 29.12,116.47] Ry
 Optimized for a Real-space Cutoff    1.55 Angstroem

   l    n(q)    QCUT    max X(q) W(low)/X(q) W(high)/X(q)  e(spline)
   2      9    10.197    59.108    0.12E-03    0.40E-04    0.11E-06
   2      9    10.197    58.101    0.12E-03    0.39E-04    0.12E-06
   0      9    10.197   102.235    0.41E-04    0.86E-05    0.83E-07
   0      9    10.197    58.388    0.37E-04    0.79E-05    0.78E-07
   1      9    10.197    22.191    0.25E-03    0.13E-03    0.84E-07
   1      9    10.197    15.590    0.21E-03    0.11E-03    0.74E-07
 Optimization of the real space projectors (new method)

[...]

   l    n(q)    QCUT    max X(q) W(low)/X(q) W(high)/X(q)  e(spline)
   0      9    10.150    20.381    0.17E-03    0.18E-03    0.41E-06
   0      9    10.150    15.268    0.18E-03    0.20E-03    0.43E-06
   1      9    10.150     5.964    0.16E-03    0.20E-03    0.36E-06
   1      9    10.150     5.382    0.13E-03    0.16E-03    0.33E-06
 Optimization of the real space projectors (new method)

 maximal supplied QI-value         = 34.20
 optimisation between [QCUT,QGAM] = [  9.92, 20.18] = [ 27.55,114.04] Ry
 Optimized for a Real-space Cutoff    1.34 Angstroem

   l    n(q)    QCUT    max X(q) W(low)/X(q) W(high)/X(q)  e(spline)
   0      8     9.919    19.460    0.16E-03    0.20E-03    0.36E-06
   0      8     9.919    12.209    0.16E-03    0.20E-03    0.35E-06
   1      8     9.919     4.655    0.19E-03    0.46E-03    0.40E-06
  PAW_PBE Pd 04Jan2005                  :
  PAW_PBE N 08Apr2002                   :
  PAW_PBE O 08Apr2002                   :
  PAW_PBE H 15Jun2001                   :

 POSCAR: Pd N O H
  positions in direct lattice
  velocities in cartesian coordinates
 exchange correlation table for  LEXCH =        8
   RHO(1)=    0.500       N(1)  =     2000
   RHO(2)=  100.500       N(2)  =     4000

 ion  position               nearest neighbor table
   1  0.125  0.125  0.403-   2 2.75   5 2.75   4 2.75  13 2.75  22 2.75  21 2.75  17 2.75  18 2.75

   2  0.125  0.375  0.403-   1 2.75   3 2.75   6 2.75  14 2.75  22 2.75  23 2.75  19 2.76  18 2.76

[...]

  17  1.000  0.000  0.468-  18 2.74  21 2.74  20 2.74  29 2.74  48 2.75  36 2.75  13 2.75  16 2.75
                             1 2.75   4 2.75  45 2.76  33 2.78
  18  1.000  0.250  0.468-  17 2.74  22 2.74  30 2.74  34 2.75  13 2.75  45 2.75   1 2.75  19 2.75
                            14 2.75  46 2.76   2 2.76  33 2.76
  19  1.000  0.500  0.468-  20 2.74  23 2.74  31 2.74  34 2.75  15 2.75  47 2.75   3 2.75  18 2.75
                            14 2.75  46 2.76   2 2.76  35 2.76
  20  1.000  0.750  0.468-  24 2.74  19 2.74  17 2.74  32 2.74  36 2.75  16 2.75  48 2.75   4 2.75
                            15 2.75   3 2.75  47 2.76  35 2.78
  21  0.249  0.000  0.468-  22 2.74  17 2.74  24 2.75  36 2.75  37 2.75  40 2.75   1 2.75  25 2.75
                             4 2.75   5 2.76   8 2.76  33 2.76
  22  0.249  0.250  0.468-  38 2.72  21 2.74  18 2.74   1 2.75  33 2.75  23 2.75  26 2.75   2 2.75
                            37 2.75  34 2.75   5 2.76   6 2.76
  23  0.250  0.500  0.468-  38 2.72  24 2.74  19 2.74   3 2.75  27 2.75  35 2.75  22 2.75   2 2.75
                            39 2.75   7 2.75  34 2.76   6 2.76
  24  0.249  0.750  0.468-  23 2.74  20 2.74  21 2.75  40 2.75  39 2.75  36 2.75  28 2.75   3 2.75
                             4 2.75   7 2.76   8 2.76  35 2.76
  25  0.500  0.000  0.468-  26 2.74  29 2.74  28 2.75  40 2.75  44 2.75  21 2.75  37 2.75   5 2.75
                             9 2.75   8 2.75  12 2.75  41 2.76
  26  0.500  0.250  0.468-  38 2.73  25 2.74  30 2.74  42 2.75   5 2.75  41 2.75   9 2.75  27 2.75
                            22 2.75   6 2.75  10 2.75  37 2.75
  27  0.500  0.500  0.468-  38 2.73  28 2.74  31 2.74  42 2.75  11 2.75  23 2.75   7 2.75  26 2.75
                            43 2.75  39 2.75  10 2.75   6 2.75
  28  0.500  0.750  0.468-  27 2.74  32 2.74  25 2.75  40 2.75  39 2.75  44 2.75  24 2.75  11 2.75
                             7 2.75  12 2.75   8 2.75  43 2.76
  29  0.750  0.000  0.468-  30 2.74  17 2.74  25 2.74  32 2.75  48 2.75  44 2.75  45 2.75   9 2.75
                            13 2.76  12 2.76  16 2.76  41 2.77
  30  0.750  0.250  0.468-  29 2.74  42 2.74  26 2.74  18 2.74  45 2.75  31 2.75  46 2.75   9 2.75
                            10 2.76  13 2.76  14 2.76  41 2.76
  31  0.750  0.500  0.468-  32 2.74  27 2.74  42 2.74  19 2.74  47 2.75  30 2.75  11 2.75  46 2.75
                            15 2.75  10 2.76  14 2.76  43 2.76
  32  0.750  0.750  0.468-  31 2.74  20 2.74  28 2.74  29 2.75  48 2.75  47 2.75  44 2.75  12 2.76
                            11 2.76  16 2.76  15 2.76  43 2.77
  33  0.126  0.126  0.534-  34 2.73  37 2.74  53 2.75  50 2.75  22 2.75  49 2.75  36 2.76  45 2.76
                            18 2.76  21 2.76  54 2.77  17 2.78
  34  0.124  0.375  0.533-  33 2.73  35 2.73  46 2.73  18 2.75  19 2.75  38 2.75  22 2.75  23 2.76
                            51 2.76  50 2.76  54 2.80  55 2.80
  35  0.126  0.624  0.534-  34 2.73  39 2.74  56 2.74  51 2.75  23 2.75  52 2.76  47 2.76  36 2.76
                            19 2.76  24 2.76  55 2.77  20 2.78
  36  0.125  0.875  0.533-  48 2.74  40 2.75  21 2.75  24 2.75  17 2.75  20 2.75  52 2.75  56 2.75
                            49 2.76  53 2.76  33 2.76  35 2.76
  37  0.375  0.125  0.533-  41 2.73  33 2.74  40 2.74  21 2.75  38 2.75  25 2.75  22 2.75  26 2.75
                            57 2.76  53 2.76  58 2.79  54 2.81
  38  0.374  0.375  0.532-  23 2.72  22 2.72  26 2.73  27 2.73  34 2.75  37 2.75  39 2.75  42 2.76
                            59 2.82  58 2.82  55 2.82  54 2.82
  39  0.375  0.625  0.533-  43 2.73  35 2.74  40 2.74  24 2.75  28 2.75  38 2.75  23 2.75  27 2.75
                            56 2.76  60 2.76  59 2.79  55 2.80
  40  0.375  0.875  0.533-  37 2.74  44 2.74  39 2.74  36 2.75  24 2.75  28 2.75  25 2.75  21 2.75
                            56 2.76  57 2.76  60 2.76  53 2.76
  41  0.623  0.126  0.534-  37 2.73  42 2.74  57 2.75  26 2.75  44 2.75  45 2.76  61 2.76  25 2.76
                            30 2.76  62 2.77  29 2.77  58 2.80
  42  0.625  0.375  0.533-  41 2.74  43 2.74  30 2.74  46 2.74  31 2.74  26 2.75  27 2.75  38 2.76
                            62 2.79  63 2.80  59 2.81  58 2.82
  43  0.624  0.624  0.534-  39 2.73  42 2.74  60 2.75  27 2.75  44 2.75  47 2.76  64 2.76  28 2.76
                            63 2.76  31 2.76  32 2.77  59 2.79
  44  0.625  0.875  0.533-  40 2.74  48 2.75  25 2.75  29 2.75  32 2.75  28 2.75  64 2.75  41 2.75
                            43 2.75  61 2.75  57 2.76  60 2.76
  45  0.874  0.125  0.533-  46 2.74  30 2.75  48 2.75  50 2.75  29 2.75  18 2.75  49 2.75  41 2.76
                            61 2.76  33 2.76  17 2.76  62 2.77
  46  0.875  0.375  0.533-  34 2.73  45 2.74  47 2.74  42 2.74  30 2.75  31 2.75  50 2.76  51 2.76
                            18 2.76  19 2.76  63 2.79  62 2.79
  47  0.875  0.625  0.533-  46 2.74  31 2.75  32 2.75  48 2.75  51 2.75  19 2.75  64 2.75  52 2.76
                            43 2.76  35 2.76  20 2.76  63 2.77
  48  0.875  0.875  0.533-  36 2.74  29 2.75  45 2.75  44 2.75  32 2.75  17 2.75  47 2.75  20 2.75
                            64 2.75  49 2.75  52 2.75  61 2.76
  49  0.999  0.000  0.598-  52 2.74  61 2.74  50 2.74  53 2.75  48 2.75  45 2.75  33 2.75  36 2.76

[...]

  54  0.249  0.250  0.600-  65 2.12  58 2.72  55 2.74  50 2.75  53 2.75  33 2.77  34 2.80  37 2.81
                            38 2.82
  55  0.250  0.500  0.600-  65 2.13  59 2.72  54 2.74  51 2.75  56 2.75  35 2.77  34 2.80  39 2.80
                            38 2.82
  56  0.250  0.750  0.598-  53 2.74  60 2.74  35 2.74  52 2.75  55 2.75  36 2.75  39 2.76  40 2.76

[...]

  62  0.749  0.249  0.600-  70 1.86  61 2.74  50 2.74  58 2.77  41 2.77  45 2.77  63 2.77  46 2.79
                            42 2.79
  63  0.750  0.502  0.599-  70 1.84  64 2.74  51 2.74  43 2.76  59 2.77  47 2.77  62 2.77  46 2.79
                            42 2.80
  64  0.750  0.751  0.598-  61 2.73  63 2.74  52 2.74  60 2.75  44 2.75  48 2.75  47 2.75  43 2.76

  65  0.363  0.375  0.635-  66 1.23  54 2.12  55 2.13  58 2.26  59 2.27
  66  0.362  0.375  0.676-  65 1.23
  67  0.626  0.368  0.696-  68 0.97  69 0.98
  68  0.654  0.337  0.725-  67 0.97
  69  0.537  0.370  0.699-  67 0.98
  70  0.639  0.377  0.606-  63 1.84  62 1.86  59 2.07  58 2.09

  LATTYP: Found a simple tetragonal cell.
 ALAT       =    10.9820000000
 C/A-ratio  =     2.7317428519

  Lattice vectors:

 A1 = (  10.9820000000,   0.0000000000,   0.0000000000)
 A2 = (   0.0000000000,  10.9820000000,   0.0000000000)
 A3 = (   0.0000000000,   0.0000000000,  30.0000000000)

Analysis of symmetry for initial positions (statically):
 Subroutine PRICEL returns:
 Original cell was already a primitive cell.

 Routine SETGRP: Setting up the symmetry group for a
 simple tetragonal supercell.

 Subroutine GETGRP returns: Found  1 space group operations
 (whereof  1 operations were pure point group operations)
 out of a pool of 16 trial point group operations.

The static configuration has the point symmetry C_1 .

Analysis of symmetry for dynamics (positions and initial velocities):
 Subroutine PRICEL returns:
 Original cell was already a primitive cell.

[...]

The dynamic configuration has the point symmetry C_1 .

Analysis of constrained symmetry for selective dynamics:
 Subroutine PRICEL returns:
 Original cell was already a primitive cell.

[...]

The constrained configuration has the point symmetry C_1 .

Analysis of structural, dynamic, and magnetic symmetry:
 Subroutine PRICEL returns:
 Original cell was already a primitive cell.

 Routine SETGRP: Setting up the symmetry group for a
 simple tetragonal supercell.

 Subroutine GETGRP returns: Found  1 space group operations
 (whereof  1 operations were pure point group operations)
 out of a pool of 16 trial point group operations.

The magnetic configuration has the point symmetry C_1 .
[...]
   0.131E+01 0.269E+01 0.963E+03   -.134E+01 -.274E+01 -.963E+03   0.258E-01 0.661E-01 0.424E-01   0.102E-01 -.159E-01 -.604E-02
   0.390E+01 0.516E+01 0.973E+03   -.392E+01 -.518E+01 -.973E+03   0.100E-01 0.453E-01 -.163E-01   0.891E-02 -.200E-01 -.923E-02
   0.422E+01 -.528E+01 0.973E+03   -.424E+01 0.530E+01 -.973E+03   0.429E-02 -.437E-01 -.181E-01   0.783E-02 0.177E-01 -.910E-02
   0.130E+01 -.255E+01 0.964E+03   -.133E+01 0.260E+01 -.964E+03   0.235E-01 -.691E-01 0.513E-01   0.927E-02 0.181E-01 -.597E-02
   0.517E+01 0.633E+01 0.970E+03   -.523E+01 -.632E+01 -.970E+03   0.396E-01 0.159E-01 -.383E-01   0.259E-01 -.158E-01 -.700E-03
   0.953E+01 0.900E+01 0.989E+03   -.957E+01 -.899E+01 -.989E+03   0.531E-02 0.118E-01 -.827E-01   0.266E-01 -.202E-01 -.349E-02
   0.922E+01 -.913E+01 0.988E+03   -.925E+01 0.912E+01 -.988E+03   0.102E-01 -.105E-01 -.878E-01   0.273E-01 0.174E-01 -.239E-02
   0.514E+01 -.623E+01 0.970E+03   -.521E+01 0.622E+01 -.970E+03   0.405E-01 -.147E-01 -.264E-01   0.264E-01 0.186E-01 0.458E-03
   -.274E+01 0.729E+01 0.974E+03   0.277E+01 -.729E+01 -.974E+03   -.261E-01 0.182E-01 -.619E-02   -.100E-01 -.157E-01 0.233E-02
   -.506E+01 0.983E+01 0.993E+03   0.509E+01 -.981E+01 -.993E+03   -.236E-01 -.918E-02 -.881E-01   -.874E-02 -.187E-01 -.262E-02
   -.476E+01 -.995E+01 0.992E+03   0.479E+01 0.993E+01 -.992E+03   -.318E-01 0.774E-02 -.896E-01   -.840E-02 0.172E-01 0.560E-03
   -.261E+01 -.721E+01 0.975E+03   0.264E+01 0.720E+01 -.975E+03   -.314E-01 -.132E-01 0.388E-03   -.939E-02 0.171E-01 0.554E-02
   -.375E+01 0.399E+01 0.965E+03   0.382E+01 -.399E+01 -.965E+03   -.397E-01 0.239E-01 -.240E-01   -.260E-01 -.152E-01 -.373E-02
   -.817E+01 0.648E+01 0.977E+03   0.820E+01 -.648E+01 -.977E+03   -.178E-02 0.176E-01 -.546E-01   -.268E-01 -.184E-01 -.850E-02
   -.844E+01 -.662E+01 0.976E+03   0.846E+01 0.662E+01 -.977E+03   0.298E-02 -.191E-01 -.545E-01   -.270E-01 0.172E-01 -.627E-02
   -.384E+01 -.386E+01 0.965E+03   0.390E+01 0.386E+01 -.965E+03   -.354E-01 -.220E-01 -.172E-01   -.262E-01 0.164E-01 -.146E-02
   0.203E+02 0.250E+02 -.804E+03   -.202E+02 -.248E+02 0.804E+03   -.162E+00 -.160E+00 -.195E+00   0.232E-01 -.240E-01 0.183E-01
   0.264E+02 -.412E+00 -.766E+03   -.266E+02 0.415E+00 0.766E+03   0.157E+00 0.184E-02 0.185E+00   0.246E-01 -.348E-02 0.206E-01
   0.203E+02 -.250E+02 -.803E+03   -.201E+02 0.249E+02 0.803E+03   -.161E+00 0.164E+00 -.191E+00   0.248E-01 0.233E-01 0.124E-01
   0.110E+02 0.556E+00 -.804E+03   -.110E+02 -.557E+00 0.804E+03   -.178E-01 -.897E-02 0.477E-01   0.240E-01 0.406E-02 0.105E-01
   0.632E+01 0.338E+02 -.767E+03   -.631E+01 -.339E+02 0.767E+03   -.100E-01 0.896E-01 0.883E-01   0.117E-01 -.245E-01 0.103E-01
   0.904E+01 -.460E+00 -.677E+03   -.911E+01 0.461E+00 0.676E+03   0.445E-01 -.216E-03 0.137E+01   0.126E-01 -.783E-03 0.126E-01
   0.601E+01 -.338E+02 -.767E+03   -.602E+01 0.339E+02 0.767E+03   -.693E-02 -.861E-01 0.838E-01   0.150E-01 0.239E-01 0.713E-02
   0.340E+01 0.619E+00 -.792E+03   -.342E+01 -.620E+00 0.792E+03   0.242E-01 -.394E-02 0.605E-01   0.143E-01 0.161E-02 0.550E-02
   -.189E+02 0.289E+02 -.791E+03   0.188E+02 -.289E+02 0.791E+03   0.124E+00 -.437E-02 -.622E-01   -.239E-01 -.249E-01 0.150E-01
   -.269E+02 -.579E+00 -.727E+03   0.270E+02 0.566E+00 0.726E+03   -.277E-01 0.109E-01 0.111E+01   -.246E-01 -.571E-06 0.159E-01
   -.190E+02 -.290E+02 -.790E+03   0.189E+02 0.289E+02 0.790E+03   0.129E+00 0.158E-02 -.462E-01   -.248E-01 0.244E-01 0.123E-01
   -.891E+01 0.791E+00 -.797E+03   0.893E+01 -.790E+00 0.797E+03   -.192E-01 -.456E-02 0.551E-01   -.256E-01 0.438E-03 0.116E-01
   -.758E+01 0.172E+02 -.800E+03   0.756E+01 -.172E+02 0.801E+03   0.384E-01 -.206E-01 -.486E-01   -.108E-01 -.243E-01 0.228E-01
   -.838E+01 -.657E+00 -.786E+03   0.854E+01 0.657E+00 0.786E+03   -.148E+00 0.796E-02 0.139E+00   -.126E-01 -.215E-02 0.237E-01
   -.711E+01 -.170E+02 -.799E+03   0.711E+01 0.170E+02 0.799E+03   0.286E-01 0.131E-01 -.446E-01   -.148E-01 0.237E-01 0.168E-01
   -.566E+01 0.441E+00 -.805E+03   0.567E+01 -.444E+00 0.805E+03   0.193E-01 -.363E-03 0.276E-01   -.129E-01 0.276E-02 0.160E-01
   0.592E+01 0.239E+02 -.256E+04   -.594E+01 -.238E+02 0.255E+04   0.216E-01 -.279E-01 0.323E+01   0.411E-02 -.678E-02 0.150E-01
   0.217E+02 0.278E+02 -.253E+04   -.216E+02 -.279E+02 0.253E+04   -.639E-01 0.623E-01 0.333E+01   0.486E-02 -.159E-01 0.267E-01
   0.220E+02 -.292E+02 -.253E+04   -.220E+02 0.293E+02 0.253E+04   -.567E-01 -.635E-01 0.334E+01   0.419E-02 0.712E-02 0.263E-01
   0.620E+01 -.224E+02 -.256E+04   -.623E+01 0.224E+02 0.255E+04   0.248E-01 0.218E-01 0.324E+01   0.303E-02 0.153E-01 0.147E-01
   0.266E+02 0.475E+02 -.254E+04   -.267E+02 -.474E+02 0.254E+04   0.151E-01 -.104E+00 0.328E+01   0.170E-01 -.847E-02 0.249E-02
   0.153E+03 0.152E+03 -.243E+04   -.153E+03 -.152E+03 0.242E+04   0.576E-01 0.187E+00 0.243E+01   0.155E-01 -.138E-01 0.130E-01
   0.152E+03 -.154E+03 -.243E+04   -.152E+03 0.154E+03 0.242E+04   0.476E-01 -.193E+00 0.244E+01   0.186E-01 0.753E-02 0.128E-01
   0.262E+02 -.460E+02 -.254E+04   -.263E+02 0.458E+02 0.254E+04   0.969E-02 0.102E+00 0.329E+01   0.200E-01 0.147E-01 0.193E-02
   -.101E+02 0.553E+02 -.253E+04   0.101E+02 -.553E+02 0.253E+04   0.175E-01 -.820E-01 0.329E+01   -.326E-02 -.119E-01 -.316E-02
   -.825E+02 0.170E+03 -.239E+04   0.828E+02 -.170E+03 0.239E+04   -.295E+00 0.604E+00 0.280E+01   -.435E-02 -.139E-01 0.736E-02
   -.835E+02 -.172E+03 -.239E+04   0.839E+02 0.173E+03 0.239E+04   -.380E+00 -.580E+00 0.276E+01   -.357E-02 0.114E-01 0.607E-02
   -.110E+02 -.521E+02 -.254E+04   0.109E+02 0.520E+02 0.253E+04   0.229E-01 0.718E-01 0.330E+01   -.231E-02 0.144E-01 -.470E-02
   -.228E+02 0.335E+02 -.255E+04   0.229E+02 -.334E+02 0.254E+04   -.399E-01 -.615E-01 0.325E+01   -.178E-01 -.993E-02 0.103E-01
   -.881E+02 0.695E+02 -.250E+04   0.877E+02 -.691E+02 0.250E+04   0.418E+00 -.391E+00 0.303E+01   -.155E-01 -.148E-01 0.213E-01
   -.856E+02 -.725E+02 -.250E+04   0.852E+02 0.720E+02 0.250E+04   0.509E+00 0.463E+00 0.297E+01   -.187E-01 0.107E-01 0.198E-01
   -.217E+02 -.303E+02 -.255E+04   0.218E+02 0.303E+02 0.254E+04   -.484E-01 0.468E-01 0.327E+01   -.209E-01 0.143E-01 0.882E-02
   0.262E+02 -.195E+01 -.134E+04   -.248E+02 0.200E+01 0.131E+04   -.141E+01 -.370E-01 0.251E+02   0.377E-02 -.138E-02 0.100E-03
   0.793E+02 -.300E+01 -.208E+04   -.817E+02 0.309E+01 0.213E+04   0.240E+01 -.836E-01 -.529E+02   0.245E-02 -.104E-02 -.133E-02
   -.115E+03 -.143E+02 -.175E+04   0.141E+03 0.273E+02 0.171E+04   -.255E+02 -.130E+02 0.374E+02   -.216E-02 -.919E-03 0.141E-02
   -.385E+02 0.313E+02 -.350E+03   0.414E+02 -.341E+02 0.357E+03   -.285E+01 0.284E+01 -.721E+01   -.252E-03 -.171E-03 0.206E-03
   0.609E+02 -.251E+01 -.310E+03   -.690E+02 0.280E+01 0.310E+03   0.811E+01 -.291E+00 -.359E+00   -.387E-03 -.104E-03 0.291E-04
   -.444E+01 -.940E-01 -.263E+03   0.395E+01 0.469E-01 0.263E+03   0.506E+00 0.496E-01 -.410E+00   -.152E-02 -.267E-03 0.145E-02
   0.186E+02 0.105E+02 -.630E+00   -.403E-12 0.645E-13 -.421E-11   -.186E+02 -.105E+02 0.427E+00   0.318E-02 -.393E-02 0.229E+00

 POSITION                                       TOTAL-FORCE (eV/Angst)
      1.37275      1.37275     12.08797        -0.012351     -0.009508     -0.000713
      1.37275      4.11824     12.08797        -0.026900      0.000289      0.013683
      1.37275      6.86373     12.08797        -0.010560      0.009371     -0.002635
      1.37275      9.60922     12.08797        -0.006049      0.003428     -0.003660
      4.11824      1.37275     12.08797        -0.009237     -0.016456      0.005025
      4.11824      4.11824     12.08797         0.000139      0.000859      0.004816
      4.11824      6.86373     12.08797        -0.008104      0.014218      0.005004
      4.11824      9.60922     12.08797        -0.011004      0.001876      0.019973
      6.86373      1.37275     12.08797         0.007266     -0.005600      0.000965
      6.86373      4.11824     12.08797         0.010938      0.000653      0.005930
      6.86373      6.86373     12.08797         0.008784      0.005349     -0.001157
      6.86373      9.60922     12.08797         0.020710      0.002821      0.008472
      9.60922      1.37275     12.08797        -0.004448     -0.015831      0.001804
      9.60922      4.11824     12.08797        -0.005211      0.001257      0.021281
      9.60922      6.86373     12.08797        -0.002410      0.016808      0.002547
      9.60922      9.60922     12.08797        -0.015866      0.003065     -0.036064
     10.97994      0.00074     14.04116        -0.001005     -0.001325     -0.002669
     10.97838      2.74135     14.04252         0.001149     -0.000395     -0.000566
     10.97958      5.49573     14.04234        -0.006312      0.001095     -0.000935
     10.98075      8.23797     14.04014        -0.000185     -0.000153      0.000578
      2.73951      0.00081     14.04383         0.002442      0.007594     -0.007891
      2.73965      2.74215     14.03951        -0.001058      0.000042      0.000963
      2.73984      5.49428     14.03975         0.005911     -0.000011     -0.000986
      2.74020      8.23639     14.04281         0.002005     -0.005260     -0.002954
      5.49117      0.00110     14.04100        -0.003299      0.000376     -0.000423
      5.49068      2.74211     14.03946        -0.000917     -0.001592     -0.000254
      5.49181      5.49442     14.03968        -0.010126      0.001435     -0.004991
      5.49184      8.23620     14.04011        -0.006722      0.001773      0.005069
      8.23538      0.00184     14.04443        -0.000108      0.003678     -0.007045
      8.23425      2.74343     14.04328        -0.003174     -0.001517     -0.000512
      8.23452      5.49390     14.04345         0.004799      0.001569     -0.003517
      8.23565      8.23654     14.04344         0.002019     -0.003215     -0.001913
      1.38066      1.38788     16.01104        -0.005148     -0.000091     -0.002248
      1.35854      4.11861     15.98708         0.004271      0.001146      0.001927
      1.38256      6.85014     16.00955        -0.006054      0.002212      0.002153
      1.36954      9.61097     15.98909        -0.013464     -0.005885      0.006905
      4.11393      1.36920     15.99163         0.008359      0.004487     -0.003058
      4.10556      4.11781     15.94940        -0.001657      0.000225     -0.002299
      4.11532      6.86811     15.99030         0.005302     -0.000903     -0.005872
      4.11416      9.61012     15.98587         0.018763     -0.003603      0.002601
      6.84676      1.38232     16.00972        -0.005284      0.001372     -0.003748
      6.86272      4.11849     15.97935        -0.003841     -0.001348      0.004501
      6.84821      6.85673     16.00720        -0.001419      0.003664      0.003486
      6.86121      9.61106     15.98878        -0.016456     -0.002882      0.004186
      9.60006      1.37803     15.99777         0.007883      0.000395     -0.001779
      9.60482      4.11869     15.99472         0.003458      0.005343     -0.001385
      9.60319      6.86252     15.99477         0.004729     -0.005739     -0.000658
      9.60601      9.61139     15.98833         0.014537     -0.000699     -0.002840
     10.97591      0.00024     17.94503         0.001670     -0.002071     -0.007806
     10.97183      2.74527     17.95281         0.000711     -0.000759     -0.003934
     10.97434      5.49497     17.95157         0.002508     -0.001313     -0.004409
     10.97753      8.23974     17.94360         0.003412      0.000591     -0.007412
      2.74180     10.97852     17.94882        -0.002627     -0.001080      0.001820
      2.73875      2.74916     18.00884         0.001049      0.000129      0.003062
      2.74218      5.48806     18.00834        -0.003315     -0.002485      0.001940
      2.74352      8.24064     17.94620        -0.004908      0.001583      0.007865
      5.48376     10.97669     17.95111         0.002032     -0.005649     -0.004924
      5.46141      2.75351     18.01139         0.001516      0.004511      0.000158
      5.46351      5.48378     18.00574         0.007073     -0.003478     -0.005694
      5.48540      8.24300     17.95061         0.001754      0.005474     -0.007694
      8.23236     10.97748     17.94648        -0.000382      0.001599     -0.001589
      8.22737      2.73553     17.98788         0.001337     -0.000824      0.002038
      8.23290      5.50772     17.98312        -0.000537      0.004404     -0.004141
      8.23458      8.24617     17.94390        -0.003927     -0.001673      0.002610
      3.98795      4.11563     19.04634         0.005691      0.002632      0.001031
      3.97458      4.11563     20.28061         0.007497      0.003455      0.001706
      6.87270      4.03537     20.88611         0.009523     -0.012972      0.009105
      7.18027      3.69788     21.74510         0.010835     -0.006616      0.004884
      5.89647      4.05867     20.95771         0.016412     -0.002064     -0.010398
      7.01990      4.13583     18.18597         0.007580      0.002216      0.002682
    total drift:                               -0.008828      0.003233      0.026385

  FREE ENERGIE OF THE ION-ELECTRON SYSTEM (eV)
  free  energy   TOTEN  =      -369.26775344 eV

  energy  without entropy=     -369.15868730  energy(sigma->0) =     -369.23139806

 d Force = 0.1079458E-05[-0.187E-06, 0.235E-05]  d Energy = 0.3080819E-06 0.771E-06
 d Force = 0.6966659E+00[ 0.697E+00, 0.697E+00]  d Ewald  = 0.6966659E+00-0.192E-08

 reached required accuracy - stopping structural energy minimisation

 total charge

[...]

 magnetization (x)

# of ion       s       p       d       tot
    1       -0.001  -0.004   0.225   0.221
    2       -0.001  -0.004   0.224   0.219
    3       -0.001  -0.004   0.225   0.221
    4       -0.001  -0.003   0.230   0.226
    5       -0.001  -0.004   0.228   0.223
    6       -0.000  -0.004   0.230   0.226
    7       -0.001  -0.004   0.228   0.223
    8       -0.001  -0.004   0.216   0.211
    9       -0.001  -0.004   0.226   0.222
   10       -0.001  -0.004   0.228   0.223
   11       -0.001  -0.004   0.226   0.222
   12       -0.001  -0.003   0.228   0.224
   13       -0.001  -0.003   0.227   0.222
   14       -0.000  -0.004   0.213   0.208
   15       -0.001  -0.003   0.227   0.222
   16        0.003  -0.004   0.240   0.239
   17       -0.002  -0.006   0.321   0.313
   18       -0.002  -0.006   0.318   0.310
   19       -0.002  -0.006   0.319   0.310
   20       -0.002  -0.006   0.321   0.313
   21       -0.002  -0.006   0.325   0.317
   22       -0.002  -0.006   0.323   0.315
   23       -0.002  -0.006   0.323   0.315
   24       -0.002  -0.006   0.325   0.317
   25       -0.002  -0.007   0.322   0.314
   26       -0.002  -0.006   0.324   0.316
   27       -0.002  -0.006   0.324   0.316
   28       -0.002  -0.006   0.322   0.314
   29       -0.002  -0.006   0.319   0.311
   30       -0.002  -0.006   0.322   0.314
   31       -0.002  -0.006   0.322   0.313
   32       -0.002  -0.006   0.319   0.311
   33       -0.002  -0.006   0.280   0.272
   34       -0.002  -0.006   0.310   0.303
   35       -0.002  -0.006   0.280   0.272
   36       -0.002  -0.006   0.319   0.311
   37       -0.002  -0.006   0.308   0.301
   38       -0.001  -0.005   0.266   0.260
   39       -0.002  -0.006   0.308   0.300
   40       -0.002  -0.006   0.315   0.307
   41       -0.002  -0.006   0.282   0.274
   42       -0.002  -0.005   0.278   0.271
   43       -0.002  -0.006   0.282   0.274
   44       -0.002  -0.006   0.320   0.312
   45       -0.002  -0.006   0.305   0.297
   46       -0.002  -0.006   0.301   0.292
   47       -0.002  -0.006   0.304   0.296
   48       -0.001  -0.006   0.323   0.316
   49       -0.001  -0.003   0.225   0.221
   50       -0.000  -0.004   0.211   0.207
   51       -0.000  -0.004   0.211   0.207
   52       -0.001  -0.003   0.225   0.221
   53       -0.000  -0.004   0.208   0.204
   54       -0.003  -0.004   0.092   0.086
   55       -0.003  -0.004   0.093   0.086
   56       -0.000  -0.004   0.209   0.205
   57       -0.000  -0.004   0.214   0.210
   58       -0.002  -0.003   0.098   0.093
   59       -0.002  -0.003   0.098   0.093
   60       -0.000  -0.004   0.214   0.210
   61       -0.001  -0.004   0.216   0.211
   62       -0.001  -0.004   0.150   0.145
   63       -0.001  -0.004   0.148   0.143
   64       -0.001  -0.003   0.216   0.212
   65        0.001  -0.009   0.000  -0.008
   66       -0.000  -0.015   0.000  -0.015
   67        0.000   0.000   0.000   0.000
   68        0.000   0.000   0.000   0.000
   69        0.000  -0.000   0.000  -0.000
   70       -0.002  -0.000   0.000  -0.002
tot         -0.084  -0.335  16.377  15.958