 vasp.5.4.4.18Apr17-6-g9f103f2a35 (build May 01 2020 14:57:12) complex

 executed on             LinuxIFC date 2021.11.21  15:50:07

 INCAR:
 POTCAR:    PAW_PBE N 08Apr2002
 POTCAR:    PAW_PBE O 08Apr2002
 POTCAR:    PAW_PBE Pd 04Jan2005

 POTCAR:    PAW_PBE N 08Apr2002
   VRHFIN =N: s2p3

   TITEL  = PAW_PBE N 08Apr2002
   POMASS =   14.001; ZVAL   =    5.000    mass and valenz
   ENMAX  =  400.000; ENMIN  =  300.000 eV

 POTCAR:    PAW_PBE O 08Apr2002
   VRHFIN =O: s2p4

   TITEL  = PAW_PBE O 08Apr2002
   POMASS =   16.000; ZVAL   =    6.000    mass and valenz
   ENMAX  =  400.000; ENMIN  =  300.000 eV

 POTCAR:    PAW_PBE Pd 04Jan2005
   VRHFIN =Pd : s1 d9

   TITEL  = PAW_PBE Pd 04Jan2005
   POMASS =  106.420; ZVAL   =   10.000    mass and valenz
   ENMAX  =  250.925; ENMIN  =  188.194 eV

 Optimization of the real space projectors (new method)

 maximal supplied QI-value         = 25.13
 optimisation between [QCUT,QGAM] = [ 10.05, 20.36] = [ 28.30,116.06] Ry
 Optimized for a Real-space Cutoff    1.70 Angstroem

   l    n(q)    QCUT    max X(q) W(low)/X(q) W(high)/X(q)  e(spline)
   0     10    10.053    79.467    0.61E-04    0.98E-04    0.61E-06
   0     10    10.053    66.151    0.60E-04    0.98E-04    0.61E-06
   1     10    10.053     8.350    0.17E-03    0.71E-03    0.45E-05
   1     10    10.053     5.531    0.18E-03    0.77E-03    0.49E-05
 Optimization of the real space projectors (new method)

[...]

   l    n(q)    QCUT    max X(q) W(low)/X(q) W(high)/X(q)  e(spline)
   0      9    10.150    20.381    0.17E-03    0.18E-03    0.41E-06
   0      9    10.150    15.268    0.18E-03    0.20E-03    0.43E-06
   1      9    10.150     5.964    0.16E-03    0.20E-03    0.36E-06
   1      9    10.150     5.382    0.13E-03    0.16E-03    0.33E-06
 Optimization of the real space projectors (new method)

 maximal supplied QI-value         = 14.36
 optimisation between [QCUT,QGAM] = [ 10.20, 20.39] = [ 29.12,116.47] Ry
 Optimized for a Real-space Cutoff    1.55 Angstroem

   l    n(q)    QCUT    max X(q) W(low)/X(q) W(high)/X(q)  e(spline)
   2      9    10.197    59.108    0.12E-03    0.40E-04    0.11E-06
   2      9    10.197    58.101    0.12E-03    0.39E-04    0.12E-06
   0      9    10.197   102.235    0.41E-04    0.86E-05    0.83E-07
   0      9    10.197    58.388    0.37E-04    0.79E-05    0.78E-07
   1      9    10.197    22.191    0.25E-03    0.13E-03    0.84E-07
   1      9    10.197    15.590    0.21E-03    0.11E-03    0.74E-07
  PAW_PBE N 08Apr2002                   :
  PAW_PBE O 08Apr2002                   :
  PAW_PBE Pd 04Jan2005                  :

 POSCAR: N O Pd
  positions in direct lattice
  velocities in cartesian coordinates
 exchange correlation table for  LEXCH =        8
   RHO(1)=    0.500       N(1)  =     2000
   RHO(2)=  100.500       N(2)  =     4000

 ion  position               nearest neighbor table
   1  0.483  0.380  0.649-  10 1.19  75 1.95  76 2.00
   2  0.411  0.915  0.646-  11 1.21  74 2.04  70 2.17  77 2.18
   3  0.768  0.370  0.649-  12 1.19  80 1.95  79 2.00
   4  0.840  0.835  0.646-  13 1.21  81 2.04  69 2.17  78 2.19
   5  0.586  0.661  0.646-  14 1.21  77 2.04  76 2.17  81 2.18
   6  0.665  0.090  0.646-  15 1.21  78 2.04  79 2.17  74 2.19
   7  0.120  0.732  0.649-  16 1.19  73 1.95  69 2.00
   8  0.130  0.017  0.649-  17 1.19  66 1.95  70 2.00
   9  0.125  0.375  0.620-  72 2.01  67 2.01  68 2.01  71 2.01
  10  0.495  0.370  0.689-   1 1.19
  11  0.414  0.914  0.686-   2 1.21
  12  0.757  0.380  0.688-   3 1.19
  13  0.837  0.836  0.686-   4 1.21
  14  0.587  0.663  0.686-   5 1.21
  15  0.664  0.087  0.686-   6 1.21
  16  0.130  0.743  0.688-   7 1.19
  17  0.120  0.005  0.688-   8 1.19
  18  0.125  0.125  0.403-  35 2.74  22 2.75  19 2.75  30 2.75  21 2.75  39 2.76  38 2.76  34 2.76

  19  0.125  0.375  0.403-  18 2.75  20 2.75  23 2.75  31 2.75  36 2.76  40 2.76  35 2.77  39 2.77

[...]

  33  0.875  0.875  0.403-  37 2.74  32 2.75  29 2.75  21 2.75  30 2.75  34 2.75  46 2.76  49 2.78

  34  0.000  0.999  0.468-  37 2.73  35 2.73  46 2.74  53 2.74  50 2.75  21 2.75  33 2.75  38 2.76
                            18 2.76  30 2.77  62 2.77  65 2.80
  35  0.999  0.248  0.468-  51 2.70  30 2.73  34 2.73  18 2.74  47 2.74  63 2.74  31 2.76  19 2.77
                            36 2.78  50 2.78  39 2.78  62 2.80
  36  0.998  0.500  0.468-  51 2.70  48 2.73  32 2.73  31 2.74  37 2.74  52 2.74  20 2.76  19 2.76
                            63 2.78  35 2.78  40 2.78  64 2.80
  37  0.998  0.750  0.468-  52 2.71  34 2.73  49 2.74  33 2.74  36 2.74  32 2.74  21 2.76  20 2.76
                            41 2.76  65 2.77  53 2.77  64 2.82
  38  0.252  1.000  0.468-  50 2.71  41 2.73  42 2.74  25 2.74  39 2.74  22 2.74  21 2.76  34 2.76
                            18 2.76  57 2.76  53 2.77  54 2.82
  39  0.252  0.249  0.468-  51 2.70  22 2.73  43 2.73  23 2.74  38 2.74  50 2.74  18 2.76  19 2.77
                            55 2.78  40 2.78  35 2.78  54 2.80
  40  0.251  0.502  0.468-  51 2.70  24 2.73  41 2.73  44 2.74  20 2.74  55 2.74  23 2.76  19 2.76
                            52 2.78  36 2.78  39 2.78  56 2.80
  41  0.250  0.751  0.468-  38 2.73  40 2.73  45 2.74  53 2.74  52 2.74  21 2.75  25 2.76  37 2.76
                            20 2.76  24 2.77  56 2.77  57 2.80
  42  0.501  0.001  0.469-  38 2.74  43 2.74  46 2.74  45 2.74  26 2.76  61 2.76  29 2.77  22 2.77
                            57 2.77  54 2.77  25 2.78  58 2.79
  43  0.501  0.250  0.468-  47 2.73  39 2.73  42 2.74  59 2.74  55 2.75  27 2.75  26 2.75  44 2.76
                            23 2.76  22 2.77  54 2.78  58 2.80
  44  0.500  0.502  0.468-  55 2.71  48 2.73  45 2.74  40 2.74  28 2.74  24 2.74  27 2.76  23 2.76
                            43 2.76  60 2.77  59 2.77  56 2.82
  45  0.499  0.751  0.469-  44 2.74  41 2.74  42 2.74  49 2.75  25 2.76  61 2.76  29 2.77  24 2.77
                            60 2.77  56 2.77  28 2.78  57 2.79
  46  0.751  0.999  0.469-  47 2.74  34 2.74  49 2.74  42 2.74  33 2.76  61 2.76  29 2.77  30 2.77
                            58 2.77  62 2.77  26 2.78  65 2.79
  47  0.750  0.248  0.468-  63 2.71  43 2.73  46 2.74  26 2.74  35 2.74  30 2.74  27 2.76  31 2.76
                            48 2.76  58 2.77  59 2.77  62 2.82
  48  0.749  0.500  0.468-  44 2.73  36 2.73  49 2.74  59 2.74  63 2.75  27 2.75  28 2.75  31 2.76
                            47 2.76  32 2.76  64 2.77  60 2.80
  49  0.749  0.749  0.469-  37 2.74  48 2.74  46 2.74  45 2.75  28 2.76  61 2.76  29 2.77  32 2.77
                            65 2.77  64 2.77  33 2.78  60 2.79
  50  0.130  0.122  0.532-  38 2.71  53 2.71  54 2.73  39 2.74  34 2.75  66 2.75  71 2.76  35 2.78
                            62 2.78  51 2.78  67 2.85  70 3.01
  51  0.125  0.375  0.529-  39 2.70  40 2.70  35 2.70  36 2.70  55 2.78  50 2.78  52 2.78  63 2.78
                            67 2.82  68 2.83  72 2.83  71 2.83
  52  0.120  0.628  0.532-  37 2.71  53 2.71  64 2.74  36 2.74  41 2.74  73 2.75  68 2.76  40 2.78
                            56 2.78  51 2.78  72 2.85  69 3.01
  53  0.125  0.875  0.533-  50 2.71  52 2.71  65 2.74  57 2.74  41 2.74  34 2.74  37 2.77  38 2.77
                            66 2.80  73 2.80  69 2.98  70 2.98
  54  0.378  0.127  0.535-  57 2.73  50 2.73  58 2.74  71 2.76  75 2.77  42 2.77  43 2.78  55 2.78
                            39 2.80  38 2.82  70 2.84  74 2.85
  55  0.378  0.379  0.532-  44 2.71  59 2.71  56 2.73  40 2.74  43 2.75  75 2.75  72 2.76  39 2.78
                            54 2.78  51 2.78  71 2.85  76 3.01
  56  0.373  0.628  0.535-  60 2.73  55 2.73  57 2.74  72 2.76  73 2.76  41 2.77  45 2.77  52 2.78
                            40 2.80  44 2.82  76 2.84  77 2.86
  57  0.374  0.878  0.535-  77 2.70  54 2.73  53 2.74  56 2.74  70 2.75  61 2.75  38 2.76  42 2.77
                            45 2.79  41 2.80  73 2.89  74 3.03
  58  0.628  0.126  0.535-  74 2.70  62 2.73  59 2.74  54 2.74  79 2.75  61 2.75  47 2.77  46 2.77
                            42 2.79  43 2.80  75 2.89  78 3.02
  59  0.625  0.375  0.533-  55 2.71  63 2.71  60 2.74  58 2.74  43 2.74  48 2.74  44 2.77  47 2.77
                            75 2.80  80 2.80  76 2.98  79 2.98
  60  0.622  0.624  0.535-  81 2.70  56 2.73  59 2.74  64 2.74  76 2.75  61 2.75  44 2.77  45 2.77
                            49 2.79  48 2.80  80 2.89  77 3.03
  61  0.625  0.875  0.534-  65 2.75  60 2.75  58 2.75  57 2.75  42 2.76  45 2.76  49 2.76  46 2.76
                            81 2.87  78 2.87  77 2.87  74 2.87
  62  0.877  0.121  0.535-  58 2.73  63 2.74  65 2.74  67 2.76  66 2.77  46 2.77  34 2.77  50 2.78
                            35 2.80  47 2.82  79 2.84  78 2.85
  63  0.872  0.370  0.532-  47 2.71  59 2.71  62 2.74  35 2.74  48 2.75  80 2.75  67 2.76  36 2.78
                            64 2.78  51 2.78  68 2.85  79 3.01
  64  0.872  0.623  0.535-  65 2.73  52 2.74  60 2.74  68 2.76  80 2.76  49 2.77  48 2.77  63 2.78
                            36 2.80  37 2.82  69 2.84  81 2.85
  65  0.876  0.872  0.535-  78 2.70  64 2.73  53 2.74  62 2.74  69 2.75  61 2.75  37 2.77  49 2.77
                            46 2.79  34 2.80  66 2.89  81 3.02
  66  0.010  0.007  0.601-   8 1.95  78 2.70  67 2.71  50 2.75  62 2.77  69 2.79  53 2.80  70 2.82
                            65 2.89
  67  0.000  0.254  0.599-   9 2.01  68 2.70  71 2.70  66 2.71  62 2.76  63 2.76  79 2.82  51 2.82
                            50 2.85
  68  0.004  0.500  0.599-   9 2.01  67 2.70  72 2.70  80 2.71  52 2.76  64 2.76  69 2.82  51 2.83
                            63 2.85
  69  0.984  0.755  0.606-   7 2.00   4 2.17  65 2.75  81 2.77  66 2.79  68 2.82  73 2.82  64 2.84
                            53 2.98  52 3.01
  70  0.267  0.995  0.606-   8 2.00   2 2.17  57 2.75  74 2.77  73 2.79  66 2.82  71 2.82  54 2.84
                            53 2.98  50 3.01
  71  0.246  0.250  0.599-   9 2.01  72 2.70  67 2.70  75 2.71  54 2.76  50 2.76  70 2.82  51 2.83
                            55 2.85
  72  0.250  0.495  0.599-   9 2.01  71 2.70  68 2.70  73 2.71  55 2.76  56 2.76  76 2.82  51 2.83
                            52 2.85
  73  0.240  0.742  0.601-   7 1.95  77 2.70  72 2.71  52 2.75  56 2.76  70 2.79  53 2.80  69 2.82
                            57 2.89
  74  0.518  0.016  0.605-   2 2.04   6 2.19  58 2.70  75 2.70  78 2.75  77 2.75  70 2.77  54 2.85
                            61 2.87  57 3.03
  75  0.493  0.261  0.601-   1 1.95  74 2.70  71 2.71  55 2.75  54 2.77  79 2.79  59 2.80  76 2.82
                            58 2.89
  76  0.505  0.517  0.606-   1 2.00   5 2.17  60 2.75  77 2.77  80 2.79  75 2.82  72 2.82  56 2.84
                            59 2.98  55 3.01
  77  0.484  0.768  0.605-   5 2.04   2 2.18  73 2.70  57 2.70  81 2.75  74 2.75  76 2.77  56 2.86
                            61 2.87  60 3.03
  78  0.766  0.982  0.605-   6 2.04   4 2.19  65 2.70  66 2.70  74 2.75  81 2.75  79 2.77  62 2.85
                            61 2.87  58 3.02
  79  0.745  0.234  0.606-   3 2.00   6 2.17  58 2.75  78 2.77  75 2.79  80 2.82  67 2.82  62 2.84
                            59 2.98  63 3.01
[...]
   0.208E+01 0.406E+01 0.294E+04   -.204E+01 -.406E+01 -.294E+04   -.387E-01 -.982E-01 -.339E+01   -.102E-01 0.158E-01 0.681E-02
   0.639E+00 0.314E+00 0.294E+04   -.574E+00 -.262E+00 -.294E+04   -.557E-01 -.604E-01 -.328E+01   -.138E-01 -.642E-04 0.955E-02
   0.388E+01 -.218E+01 0.294E+04   -.384E+01 0.217E+01 -.294E+04   -.944E-01 0.386E-01 -.339E+01   -.205E-01 -.154E-01 0.590E-02
   0.521E+01 -.541E+00 0.294E+04   -.513E+01 0.532E+00 -.294E+04   -.704E-01 0.151E-02 -.330E+01   -.169E-01 -.321E-03 0.136E-02
   0.460E+01 -.291E+01 0.130E+04   -.454E+01 0.293E+01 -.130E+04   -.594E-01 -.339E-01 0.846E-02   -.873E-02 0.153E-01 0.360E-01
   0.103E+01 0.242E+01 0.130E+04   -.103E+01 -.240E+01 -.130E+04   0.981E-02 -.316E-01 0.644E-01   -.803E-02 0.982E-02 0.304E-01
   0.218E+01 -.107E+01 0.130E+04   -.214E+01 0.110E+01 -.130E+04   -.333E-01 -.987E-02 0.657E-01   -.132E-01 -.162E-01 0.296E-01
   0.445E+01 0.237E+01 0.130E+04   -.442E+01 -.238E+01 -.130E+04   -.225E-01 0.285E-01 -.125E-01   -.147E-01 -.817E-02 0.350E-01
   -.457E+01 -.261E+01 0.130E+04   0.454E+01 0.263E+01 -.130E+04   0.194E-01 -.255E-01 -.134E-01   0.793E-02 0.124E-01 0.325E-01
   -.238E+01 0.127E+01 0.130E+04   0.235E+01 -.129E+01 -.130E+04   0.318E-01 0.130E-01 0.638E-01   0.287E-02 0.829E-02 0.253E-01
   -.120E+01 -.234E+01 0.130E+04   0.120E+01 0.233E+01 -.130E+04   -.110E-01 0.339E-01 0.650E-01   0.917E-02 -.129E-01 0.226E-01
   -.503E+01 0.274E+01 0.130E+04   0.495E+01 -.276E+01 -.130E+04   0.636E-01 0.335E-01 0.793E-02   0.142E-01 -.754E-02 0.297E-01
   0.589E-01 -.514E+00 0.129E+04   -.472E-01 0.481E+00 -.129E+04   -.196E-01 0.332E-01 -.280E-01   0.990E-02 0.466E-02 0.263E-01
   0.308E+01 0.495E+01 0.130E+04   -.312E+01 -.490E+01 -.130E+04   0.329E-01 -.578E-01 0.705E-02   0.930E-02 0.107E-01 0.180E-01
   0.277E+01 -.437E+01 0.131E+04   -.281E+01 0.436E+01 -.131E+04   0.265E-01 0.170E-01 -.117E-01   0.144E-01 -.574E-02 0.138E-01
   0.622E+00 -.295E+00 0.129E+04   -.610E+00 0.328E+00 -.129E+04   -.307E-01 -.222E-01 -.273E-01   0.151E-01 -.973E-02 0.220E-01
   -.280E+00 0.161E+00 0.129E+04   0.261E+00 -.189E+00 -.129E+04   0.303E-01 0.198E-01 -.262E-01   -.909E-02 0.578E-02 0.300E-01
   -.257E+01 0.454E+01 0.130E+04   0.260E+01 -.454E+01 -.130E+04   -.259E-01 -.163E-01 -.144E-01   -.416E-02 0.131E-01 0.232E-01
   -.286E+01 -.473E+01 0.130E+04   0.290E+01 0.468E+01 -.130E+04   -.338E-01 0.592E-01 0.116E-01   -.102E-01 -.731E-02 0.210E-01
   0.122E+00 0.191E+00 0.129E+04   -.130E+00 -.150E+00 -.129E+04   0.229E-01 -.306E-01 -.204E-01   -.142E-01 -.112E-01 0.281E-01
   -.378E+01 -.123E+02 -.365E+03   0.395E+01 0.121E+02 0.364E+03   -.158E+00 0.155E+00 0.679E+00   -.292E-02 0.107E-01 0.404E-01
   -.295E+00 0.107E+00 -.280E+03   0.304E+00 -.102E+00 0.278E+03   -.411E-02 0.379E-02 0.199E+01   -.630E-02 -.536E-02 0.354E-01
   0.277E+01 0.127E+02 -.364E+03   -.294E+01 -.125E+02 0.363E+03   0.163E+00 -.160E+00 0.680E+00   -.421E-02 -.108E-01 0.426E-01
   -.565E+00 -.440E+00 -.368E+03   0.567E+00 0.435E+00 0.368E+03   0.398E-02 0.189E-02 0.881E+00   -.149E-02 0.593E-02 0.459E-01
   0.185E+02 -.889E+01 -.415E+03   -.183E+02 0.889E+01 0.416E+03   -.137E+00 -.648E-02 -.398E+00   0.309E-02 0.562E-02 0.364E-01
   0.126E+02 -.314E+01 -.365E+03   -.124E+02 0.331E+01 0.365E+03   -.156E+00 -.157E+00 0.678E+00   0.524E-02 -.187E-02 0.310E-01
   0.924E+01 0.182E+02 -.414E+03   -.926E+01 -.180E+02 0.414E+03   -.374E-02 -.132E+00 -.396E+00   0.989E-02 -.572E-02 0.346E-01
   0.922E+01 -.581E+01 -.371E+03   -.929E+01 0.573E+01 0.371E+03   0.586E-01 0.981E-01 -.608E-01   0.909E-02 0.269E-02 0.388E-01
   -.503E+01 -.891E+01 -.370E+03   0.494E+01 0.897E+01 0.371E+03   0.919E-01 -.631E-01 -.600E-01   0.270E-02 0.521E-02 0.305E-01
   0.315E+00 0.162E+00 -.368E+03   -.323E+00 -.165E+00 0.367E+03   0.279E-02 0.139E-03 0.884E+00   0.624E-02 0.194E-02 0.235E-01
   0.565E+01 0.879E+01 -.369E+03   -.558E+01 -.885E+01 0.369E+03   -.893E-01 0.648E-01 -.503E-01   0.517E-02 -.506E-02 0.264E-01
[...]
   0.403E+02 -.471E+02 -.212E+04   -.397E+02 0.461E+02 0.212E+04   -.580E+00 0.106E+01 0.227E+01   -.399E-02 -.429E-02 0.167E-01
   -.341E+01 0.108E+03 -.203E+04   0.344E+01 -.108E+03 0.203E+04   -.572E-01 0.247E+00 0.469E+00   -.498E-02 -.286E-02 0.188E-01
   0.325E+01 -.109E+03 -.203E+04   -.329E+01 0.109E+03 0.203E+04   0.670E-01 -.239E+00 0.447E+00   0.311E-02 0.590E-02 0.187E-01
   -.411E+02 0.475E+02 -.212E+04   0.405E+02 -.465E+02 0.212E+04   0.579E+00 -.106E+01 0.226E+01   -.107E-02 -.711E-03 0.161E-01
   -.480E+02 -.404E+02 -.212E+04   0.469E+02 0.398E+02 0.212E+04   0.106E+01 0.591E+00 0.226E+01   -.375E-03 -.423E-02 0.189E-01
   -.543E+02 0.813E+02 -.198E+04   0.540E+02 -.822E+02 0.198E+04   0.292E+00 0.887E+00 0.791E+00   0.380E-02 -.252E-02 0.224E-01
   0.384E+02 -.636E+02 -.200E+04   -.387E+02 0.639E+02 0.200E+04   0.353E+00 -.333E+00 0.116E+01   0.517E-03 0.349E-02 0.174E-01
   0.828E+02 0.534E+02 -.199E+04   -.837E+02 -.531E+02 0.199E+04   0.877E+00 -.287E+00 0.803E+00   -.608E-03 -.171E-02 0.152E-01
   0.109E+03 0.359E+01 -.203E+04   -.109E+03 -.362E+01 0.203E+04   0.232E+00 0.612E-01 0.456E+00   0.242E-02 0.206E-03 0.136E-01
   0.635E+02 0.382E+02 -.200E+04   -.638E+02 -.385E+02 0.200E+04   0.339E+00 0.338E+00 0.116E+01   0.207E-02 -.219E-02 0.178E-01
   -.626E+02 -.381E+02 -.200E+04   0.629E+02 0.384E+02 0.200E+04   -.338E+00 -.342E+00 0.117E+01   0.331E-03 0.496E-02 0.161E-01
   -.107E+03 -.301E+01 -.203E+04   0.107E+03 0.304E+01 0.203E+04   -.248E+00 -.585E-01 0.465E+00   0.235E-02 -.114E-03 0.120E-01
   -.808E+02 -.535E+02 -.198E+04   0.817E+02 0.532E+02 0.198E+04   -.894E+00 0.289E+00 0.809E+00   0.242E-02 0.384E-04 0.111E-01
   -.375E+02 0.631E+02 -.199E+04   0.378E+02 -.634E+02 0.199E+04   -.347E+00 0.328E+00 0.116E+01   -.117E-03 -.514E-02 0.129E-01
   0.293E+00 -.167E+00 0.294E+03   0.391E-12 0.711E-14 -.477E-11   -.296E+00 0.167E+00 -.295E+03   0.283E-02 0.169E-02 0.129E+01

 POSITION                                       TOTAL-FORCE (eV/Angst)
      5.30860      4.17733     19.47326        -0.002388      0.001500      0.002435
      4.51183     10.04640     19.37685        -0.002008      0.000706      0.004255
      8.43668      4.06245     19.46936        -0.003359     -0.006316      0.003010
      9.22067      9.17252     19.37244         0.003139      0.000656      0.003303
      6.43105      7.25538     19.37400        -0.000830      0.000615      0.000901
      7.30086      0.98400     19.37553         0.003758     -0.004777     -0.000881
      1.31732      8.04022     19.46851        -0.016772      0.000503      0.008007
      1.42742      0.18233     19.47247        -0.000769      0.004669      0.001500
      1.37340      4.11630     18.60499         0.001998      0.000778      0.002926
      5.43883      4.06762     20.65490        -0.014497     -0.001423     -0.002482
      4.54215     10.03887     20.58338        -0.003635     -0.000986     -0.002474
      8.31981      4.17343     20.65226         0.008735      0.000393     -0.002467
      9.19330      9.17898     20.57897         0.000079      0.001359      0.005211
      6.44167      7.28281     20.58057        -0.001899     -0.000586      0.001012
      7.29416      0.95531     20.58206         0.000518      0.002901     -0.003712
      1.42695      8.16076     20.65113         0.002431     -0.011983      0.005706
      1.31387      0.05559     20.65411         0.002341      0.013801      0.001051
      1.37275      1.37275     12.08797         0.006005     -0.006692     -0.009157
      1.37275      4.11824     12.08797         0.001194     -0.002495     -0.033729
      1.37275      6.86373     12.08797        -0.004618      0.003157     -0.009797
      1.37275      9.60922     12.08797         0.000019     -0.000821     -0.084118
      4.11824      1.37275     12.08797         0.077379     -0.012459      0.008338
      4.11824      4.11824     12.08797         0.005239      0.003648     -0.010037
      4.11824      6.86373     12.08797         0.009920      0.076847      0.008156
      4.11824      9.60922     12.08797         0.010004      0.006759      0.026578
      6.86373      1.37275     12.08797         0.006941     -0.011721      0.025898
      6.86373      4.11824     12.08797        -0.000208     -0.001525     -0.084976
      6.86373      6.86373     12.08797        -0.008332      0.011231      0.024431
      6.86373      9.60922     12.08797        -0.001562      0.001324      0.095031
      9.60922      1.37275     12.08797        -0.009738     -0.077792      0.008799
      9.60922      4.11824     12.08797        -0.002761     -0.007618     -0.009360
      9.60922      6.86373     12.08797        -0.074881      0.010002      0.008017
      9.60922      9.60922     12.08797        -0.010242     -0.007144      0.025880
      0.00285     10.96915     14.04736        -0.000338      0.000009     -0.000950
     10.97538      2.71958     14.03357        -0.000921      0.001170     -0.000236
     10.95776      5.49710     14.03322        -0.000428      0.000760      0.000541
     10.96374      8.23799     14.03703        -0.004222      0.002787     -0.001192
      2.76428     10.97908     14.03750         0.000653     -0.000333      0.000477
      2.77124      2.73719     14.03336        -0.001159      0.001560      0.000840
      2.75328      5.51522     14.03336        -0.000998      0.001152      0.001646
      2.74252      8.24815     14.04764         0.004276     -0.000095     -0.000650
      5.50017      0.00917     14.06470         0.000327      0.001186     -0.002479
      5.50338      2.74774     14.04740        -0.000889     -0.000201     -0.001197
      5.49308      5.50941     14.03662         0.000296     -0.000794     -0.000323
      5.48133      8.24618     14.06414         0.000126     -0.000845     -0.002477
      8.24549     10.97254     14.06424        -0.001128     -0.000892     -0.001706
      8.23432      2.72642     14.03703         0.000287      0.000786     -0.002403
      8.22447      5.48806     14.04630         0.000180      0.000643      0.000591
      8.22663      8.22753     14.06339         0.002700      0.001049      0.002603
      1.42426      1.33657     15.97137        -0.000783     -0.001970      0.002737
      1.37453      4.11635     15.88147        -0.002425      0.003312      0.000492
      1.32302      6.89706     15.97056         0.001283     -0.000282      0.000678
      1.37214      9.60785     15.99712         0.005096      0.002779     -0.000392
      4.15649      1.39175     16.05915         0.001071     -0.002213      0.001406
      4.15354      4.16774     15.97144         0.001606      0.001007      0.001080
      4.10061      6.90045     16.05766        -0.005354      0.003592      0.001750
      4.11124      9.64297     16.04951        -0.003485      0.001878     -0.001392
      6.89845      1.38007     16.04909        -0.002760     -0.002448     -0.000269
      6.86365      4.11859     15.99561         0.001157     -0.001275      0.004210
      6.82955      6.85695     16.04677         0.005124      0.001611      0.006474
[...]
      0.00458      2.79085     17.96560        -0.001479      0.000050      0.004082
      0.04798      5.48642     17.96577         0.003524     -0.001390      0.002417
     10.80163      8.28976     18.16855        -0.001438      0.002708     -0.001744
      2.92650     10.92355     18.17412         0.005888     -0.000641     -0.007485
      2.70000      2.74603     17.97088        -0.000037      0.000557     -0.005045
      2.74405      5.44151     17.96906        -0.000972      0.000869     -0.004829
      2.63135      8.15217     18.03658         0.013227      0.002133     -0.011205
      5.68744      0.18101     18.13995         0.005192      0.001285      0.000855
      5.41116      2.86270     18.03900        -0.002879     -0.003986     -0.003481
      5.54877      5.67383     18.17143         0.000557      0.001567     -0.002067
      5.31250      8.43480     18.14018        -0.002215     -0.001801      0.001695
      8.41495     10.78539     18.13845        -0.002956      0.004579      0.005288
      8.18264      2.56494     18.17037        -0.002214     -0.003485      0.000101
      8.31931      5.37604     18.03542         0.001277      0.005265     -0.003440
      8.04072      8.05802     18.13684        -0.005695     -0.007690     -0.002898
    total drift:                               -0.000424      0.001938      0.011886

  FREE ENERGIE OF THE ION-ELECTRON SYSTEM (eV)
  free  energy   TOTEN  =      -460.10508978 eV

  energy  without entropy=     -459.95370171  energy(sigma->0) =     -460.05462709

 d Force = 0.1757564E-04[ 0.163E-04, 0.189E-04]  d Energy = 0.2001752E-04-0.244E-05
 d Force = 0.4834274E-01[ 0.483E-01, 0.483E-01]  d Ewald  = 0.4834274E-01 0.163E-08

 Conjugate gradient step on ions:
 trial-energy change:   -0.000020  1 .order   -0.000018   -0.000019   -0.000016
  (g-gl).g = 0.931E-04      g.g   = 0.158E-03  gl.gl    = 0.769E-03
 g(Force)  = 0.158E-03   g(Stress)= 0.000E+00 ortho     = 0.601E-05
 gamma     =   0.12112
 trial     =   0.11867
 opt step  =   0.47469  (harmonic =   0.85964) maximal distance =0.00048490
 next E    =  -460.105138   (d E  =  -0.00007)

 reached required accuracy - stopping structural energy minimisation

 total charge

[...]

 magnetization (x)

# of ion       s       p       d       tot
    1        0.000  -0.000   0.000  -0.000
    2       -0.000  -0.001   0.000  -0.001
    3        0.000  -0.000   0.000  -0.000
    4       -0.000  -0.001   0.000  -0.001
    5       -0.000  -0.001   0.000  -0.001
    6       -0.000  -0.001   0.000  -0.001
    7        0.000  -0.000   0.000  -0.000
    8        0.000  -0.000   0.000  -0.000
    9       -0.000  -0.004   0.000  -0.004
   10       -0.000  -0.000   0.000  -0.000
   11       -0.000  -0.001   0.000  -0.001
   12       -0.000  -0.000   0.000  -0.000
   13       -0.000  -0.001   0.000  -0.001
   14       -0.000  -0.001   0.000  -0.001
   15       -0.000  -0.001   0.000  -0.001
   16       -0.000  -0.000   0.000  -0.000
   17       -0.000  -0.000   0.000  -0.000
   18       -0.000  -0.001   0.065   0.064
   19        0.000  -0.001   0.070   0.069
   20       -0.000  -0.001   0.065   0.064
   21        0.000  -0.001   0.062   0.061
   22       -0.000  -0.001   0.063   0.062
   23       -0.000  -0.001   0.065   0.064
   24       -0.000  -0.001   0.063   0.062
   25       -0.000  -0.001   0.056   0.055
   26       -0.000  -0.001   0.056   0.055
   27        0.000  -0.001   0.062   0.061
   28       -0.000  -0.001   0.056   0.055
   29       -0.000  -0.001   0.046   0.045
   30       -0.000  -0.001   0.063   0.062
   31       -0.000  -0.001   0.065   0.064
   32       -0.000  -0.001   0.063   0.062
   33       -0.000  -0.001   0.056   0.055
   34       -0.000  -0.001   0.065   0.063
   35       -0.000  -0.001   0.072   0.070
   36       -0.000  -0.001   0.072   0.070
   37       -0.000  -0.001   0.062   0.060
   38       -0.000  -0.001   0.062   0.060
   39       -0.000  -0.001   0.071   0.070
   40       -0.000  -0.001   0.071   0.070
   41       -0.000  -0.001   0.065   0.063
   42       -0.000  -0.001   0.048   0.047
   43       -0.000  -0.001   0.065   0.063
   44       -0.000  -0.001   0.062   0.060
   45       -0.000  -0.001   0.048   0.047
   46       -0.000  -0.001   0.048   0.047
   47       -0.000  -0.001   0.062   0.060
   48       -0.000  -0.001   0.065   0.063
   49       -0.000  -0.001   0.049   0.047
   50       -0.000  -0.001   0.050   0.049
   51       -0.000  -0.001   0.051   0.050
   52       -0.000  -0.001   0.050   0.049
   53       -0.000  -0.001   0.053   0.052
   54       -0.000  -0.001   0.028   0.027
   55       -0.000  -0.001   0.050   0.049
   56       -0.000  -0.001   0.028   0.027
   57       -0.000  -0.001   0.026   0.025
   58       -0.000  -0.001   0.026   0.025
   59       -0.000  -0.001   0.053   0.052
   60       -0.000  -0.001   0.026   0.025
[...]
   67       -0.000  -0.001   0.005   0.004
   68       -0.000  -0.001   0.005   0.004
   69       -0.000  -0.001   0.003   0.002
   70       -0.000  -0.001   0.003   0.002
   71       -0.000  -0.001   0.005   0.004
   72       -0.000  -0.001   0.005   0.004
   73       -0.000  -0.000   0.005   0.004
   74       -0.000  -0.001   0.002   0.001
   75       -0.000  -0.000   0.005   0.004
   76       -0.000  -0.001   0.003   0.002
   77       -0.000  -0.001   0.002   0.001
   78       -0.000  -0.001   0.002   0.001
   79       -0.000  -0.001   0.003   0.002
   80       -0.000  -0.000   0.005   0.005
   81       -0.000  -0.001   0.002   0.001
tot         -0.017  -0.070   2.635   2.549