 vasp.5.4.4.18Apr17-6-g9f103f2a35 (build May 01 2020 14:57:12) complex

 executed on             LinuxIFC date 2021.10.16  16:59:46

 INCAR:
 POTCAR:    PAW_PBE Cu 22Jun2005
 POTCAR:    PAW_PBE N 08Apr2002
 POTCAR:    PAW_PBE O 08Apr2002
 POTCAR:    PAW_PBE H 15Jun2001

 POTCAR:    PAW_PBE Cu 22Jun2005
   VRHFIN =Cu: d10 p1

   TITEL  = PAW_PBE Cu 22Jun2005
   POMASS =   63.546; ZVAL   =   11.000    mass and valenz
   ENMAX  =  295.446; ENMIN  =  221.585 eV

 POTCAR:    PAW_PBE N 08Apr2002
   VRHFIN =N: s2p3

   TITEL  = PAW_PBE N 08Apr2002
   POMASS =   14.001; ZVAL   =    5.000    mass and valenz
   ENMAX  =  400.000; ENMIN  =  300.000 eV

 POTCAR:    PAW_PBE O 08Apr2002
   VRHFIN =O: s2p4

   TITEL  = PAW_PBE O 08Apr2002
   POMASS =   16.000; ZVAL   =    6.000    mass and valenz
   ENMAX  =  400.000; ENMIN  =  300.000 eV

 POTCAR:    PAW_PBE H 15Jun2001
   VRHFIN =H: ultrasoft test

   TITEL  = PAW_PBE H 15Jun2001
   POMASS =    1.000; ZVAL   =    1.000    mass and valenz
   ENMAX  =  250.000; ENMIN  =  200.000 eV

 Optimization of the real space projectors (new method)

 maximal supplied QI-value         = 16.25
 optimisation between [QCUT,QGAM] = [ 10.24, 20.48] = [ 29.35,117.42] Ry
 Optimized for a Real-space Cutoff    1.55 Angstroem

   l    n(q)    QCUT    max X(q) W(low)/X(q) W(high)/X(q)  e(spline)
   2      9    10.239     4.610    0.85E-04    0.29E-03    0.14E-06
   2      9    10.239     8.522    0.15E-03    0.50E-03    0.27E-06
   0     10    10.239    51.609    0.45E-04    0.99E-04    0.10E-06
   0     10    10.239    27.747    0.40E-04    0.93E-04    0.97E-07
   1      9    10.239    20.408    0.15E-03    0.78E-05    0.15E-06
   1      9    10.239    13.425    0.13E-03    0.71E-05    0.14E-06
 Optimization of the real space projectors (new method)

[...]

   l    n(q)    QCUT    max X(q) W(low)/X(q) W(high)/X(q)  e(spline)
   0      9    10.150    20.381    0.17E-03    0.18E-03    0.41E-06
   0      9    10.150    15.268    0.18E-03    0.20E-03    0.43E-06
   1      9    10.150     5.964    0.16E-03    0.20E-03    0.36E-06
   1      9    10.150     5.382    0.13E-03    0.16E-03    0.33E-06
 Optimization of the real space projectors (new method)

 maximal supplied QI-value         = 34.20
 optimisation between [QCUT,QGAM] = [  9.92, 20.18] = [ 27.55,114.04] Ry
 Optimized for a Real-space Cutoff    1.34 Angstroem

   l    n(q)    QCUT    max X(q) W(low)/X(q) W(high)/X(q)  e(spline)
   0      8     9.919    19.460    0.16E-03    0.20E-03    0.36E-06
   0      8     9.919    12.209    0.16E-03    0.20E-03    0.35E-06
   1      8     9.919     4.655    0.19E-03    0.46E-03    0.40E-06
  PAW_PBE Cu 22Jun2005                  :
  PAW_PBE N 08Apr2002                   :
  PAW_PBE O 08Apr2002                   :
  PAW_PBE H 15Jun2001                   :

 POSCAR: Cu N O H
  positions in direct lattice
  velocities in cartesian coordinates
 exchange correlation table for  LEXCH =        8
   RHO(1)=    0.500       N(1)  =     2000
   RHO(2)=  100.500       N(2)  =     4000

 ion  position               nearest neighbor table
   1  0.125  0.125  0.410-  22 2.52  21 2.52  17 2.52   5 2.52   2 2.52  13 2.52   4 2.52  18 2.52

   2  0.125  0.375  0.410-  23 2.52  22 2.52  19 2.52   1 2.52   3 2.52   6 2.52  14 2.52  18 2.52

[...]

  17  0.999  0.000  0.470-  13 2.51  16 2.52  18 2.52   1 2.52  29 2.52   4 2.52  33 2.53  20 2.53
                            21 2.53  48 2.53  36 2.55  45 2.58
  18  0.999  0.250  0.470-  13 2.51  14 2.51  30 2.52  19 2.52  17 2.52   1 2.52   2 2.52  22 2.53
                            34 2.53  33 2.54  45 2.56  46 2.56
  19  0.999  0.500  0.470-  14 2.51  15 2.52  31 2.52  18 2.52  20 2.52   2 2.52   3 2.53  23 2.53
                            34 2.53  35 2.54  47 2.56  46 2.57
  20  0.999  0.750  0.470-  15 2.51  16 2.52   3 2.52  19 2.52  32 2.52   4 2.52  35 2.53  17 2.53
                            24 2.53  48 2.53  36 2.55  47 2.58
  21  0.250  1.000  0.470-   8 2.52   5 2.52   4 2.52   1 2.52  25 2.52  22 2.52  24 2.52  17 2.53
                            33 2.54  40 2.54  36 2.55  37 2.57
  22  0.250  0.250  0.470-   1 2.52   2 2.52   5 2.52   6 2.52  26 2.52  23 2.52  21 2.52  18 2.53
                            34 2.54  33 2.54  38 2.55  37 2.56
  23  0.250  0.500  0.470-   2 2.52   3 2.52   6 2.52  27 2.52   7 2.52  22 2.52  24 2.52  19 2.53
                            35 2.54  34 2.54  38 2.55  39 2.56
  24  0.250  0.750  0.470-   7 2.52   3 2.52   8 2.52   4 2.52  28 2.52  23 2.52  21 2.52  20 2.53
                            40 2.54  35 2.54  36 2.55  39 2.57
  25  0.500  0.000  0.470-  29 2.52   9 2.52   5 2.52  26 2.52  12 2.52   8 2.52  21 2.52  28 2.53
                            44 2.54  40 2.54  37 2.56  41 2.56
  26  0.499  0.250  0.470-   5 2.52  25 2.52   6 2.52  22 2.52  30 2.52   9 2.52  10 2.52  27 2.52
                            42 2.53  37 2.54  38 2.54  41 2.55
  27  0.499  0.500  0.470-   6 2.52   7 2.52  28 2.52  23 2.52  31 2.52  10 2.52  11 2.52  26 2.52
                            42 2.54  39 2.54  43 2.55  38 2.55
  28  0.500  0.750  0.470-  32 2.52  11 2.52   7 2.52  27 2.52  12 2.52   8 2.52  24 2.52  25 2.53
                            44 2.54  40 2.54  39 2.56  43 2.57
  29  0.749  0.000  0.470-   9 2.51  25 2.52  30 2.52  12 2.52  13 2.52  17 2.52  16 2.52  32 2.53
                            44 2.54  48 2.54  45 2.55  41 2.57
  30  0.749  0.250  0.470-   9 2.52  10 2.52  29 2.52  18 2.52  13 2.52  31 2.52  26 2.52  14 2.52
                            46 2.54  45 2.54  42 2.54  41 2.55
  31  0.749  0.500  0.470-  10 2.52  11 2.52  32 2.52  19 2.52  14 2.52  30 2.52  15 2.52  27 2.52
                            47 2.54  46 2.54  42 2.55  43 2.55
  32  0.749  0.749  0.470-  11 2.51  28 2.52  31 2.52  15 2.52  12 2.52  20 2.52  16 2.52  29 2.53
                            44 2.54  48 2.54  47 2.55  43 2.57
  33  0.124  0.124  0.530-  54 2.50  36 2.51  50 2.52  49 2.52  17 2.53  53 2.53  34 2.53  21 2.54
                            37 2.54  18 2.54  45 2.54  22 2.54
  34  0.123  0.375  0.530-  54 2.50  55 2.51  50 2.51  51 2.51  18 2.53  19 2.53  33 2.53  35 2.53
                            38 2.54  46 2.54  22 2.54  23 2.54
  35  0.124  0.626  0.530-  55 2.50  36 2.51  51 2.51  52 2.52  20 2.53  56 2.53  34 2.53  24 2.54
                            19 2.54  39 2.54  47 2.54  23 2.54
  36  0.125  0.875  0.530-  33 2.51  35 2.51  49 2.51  52 2.51  56 2.52  48 2.52  53 2.52  40 2.52
                            24 2.55  21 2.55  20 2.55  17 2.55
  37  0.376  0.126  0.531-  58 2.49  41 2.50  38 2.51  53 2.52  57 2.52  54 2.52  40 2.54  33 2.54
                            26 2.54  22 2.56  25 2.56  21 2.57
  38  0.375  0.375  0.530-  37 2.51  39 2.51  42 2.51  54 2.54  55 2.54  34 2.54  26 2.54  27 2.55
                            22 2.55  23 2.55  59 2.57  58 2.58
  39  0.376  0.624  0.531-  59 2.49  43 2.50  38 2.51  60 2.52  56 2.52  55 2.52  40 2.54  35 2.54
                            27 2.54  23 2.56  28 2.56  24 2.57
  40  0.374  0.875  0.530-  57 2.51  60 2.52  36 2.52  56 2.52  53 2.52  44 2.52  21 2.54  24 2.54
                            39 2.54  37 2.54  28 2.54  25 2.54
  41  0.624  0.127  0.531-  42 2.50  37 2.50  45 2.51  57 2.52  61 2.53  62 2.54  26 2.55  44 2.55
                            30 2.55  58 2.56  25 2.56  29 2.57
  42  0.624  0.375  0.530-  41 2.50  43 2.50  46 2.50  38 2.51  26 2.53  27 2.54  30 2.54  31 2.55
                            63 2.63  62 2.63  59 2.65  58 2.66
  43  0.624  0.622  0.531-  42 2.50  39 2.50  47 2.51  60 2.52  64 2.52  63 2.54  27 2.55  44 2.55
                            31 2.55  59 2.56  28 2.57  32 2.57
  44  0.625  0.875  0.530-  61 2.51  64 2.51  57 2.52  60 2.52  40 2.52  48 2.53  28 2.54  25 2.54
                            32 2.54  29 2.54  43 2.55  41 2.55
  45  0.872  0.126  0.531-  62 2.50  61 2.50  41 2.51  50 2.51  46 2.51  49 2.52  48 2.54  30 2.54
                            33 2.54  29 2.55  18 2.56  17 2.58
  46  0.872  0.375  0.531-  42 2.50  45 2.51  47 2.51  50 2.53  51 2.53  34 2.54  30 2.54  31 2.54
                            18 2.56  19 2.57  63 2.57  62 2.57
  47  0.872  0.623  0.531-  63 2.50  64 2.50  51 2.51  43 2.51  46 2.51  52 2.52  48 2.54  31 2.54
                            35 2.54  32 2.55  19 2.56  20 2.58
  48  0.875  0.875  0.530-  61 2.52  64 2.52  36 2.52  52 2.52  49 2.52  44 2.53  20 2.53  17 2.53
                            45 2.54  47 2.54  32 2.54  29 2.54
  49  0.999  1.000  0.589-  36 2.51  50 2.52  61 2.52  33 2.52  52 2.52  45 2.52  48 2.52  53 2.53

[...]

  58  0.492  0.243  0.593-  65 1.96  57 2.48  37 2.49  54 2.49  41 2.56  38 2.58  62 2.64  59 2.65
                            42 2.66
  59  0.492  0.506  0.592-  65 1.96  60 2.48  39 2.49  55 2.50  43 2.56  38 2.57  63 2.63  58 2.65
                            42 2.65
  60  0.500  0.751  0.589-  59 2.48  57 2.49  39 2.52  44 2.52  43 2.52  40 2.52  56 2.52  64 2.52

[...]

  62  0.753  0.244  0.592-  66 2.00  61 2.49  45 2.50  50 2.51  41 2.54  46 2.57  42 2.63  58 2.64
                            63 2.64
  63  0.753  0.505  0.592-  66 2.00  64 2.49  47 2.50  51 2.50  43 2.54  46 2.57  59 2.63  42 2.63
                            62 2.64
  64  0.750  0.752  0.589-  61 2.48  63 2.49  47 2.50  44 2.51  48 2.52  52 2.52  43 2.52  60 2.52

  65  0.552  0.375  0.636-  67 1.03  66 1.45  58 1.96  59 1.96
  66  0.696  0.375  0.639-  65 1.45  62 2.00  63 2.00
  67  0.521  0.376  0.669-  65 1.03

  LATTYP: Found a simple tetragonal cell.
 ALAT       =    10.0912000000
 C/A-ratio  =     2.9728872681

  Lattice vectors:

 A1 = (  10.0912000000,   0.0000000000,   0.0000000000)
 A2 = (   0.0000000000,  10.0912000000,   0.0000000000)
 A3 = (   0.0000000000,   0.0000000000,  30.0000000000)

Analysis of symmetry for initial positions (statically):
 Subroutine PRICEL returns:
 Original cell was already a primitive cell.

 Routine SETGRP: Setting up the symmetry group for a
 simple tetragonal supercell.

 Subroutine GETGRP returns: Found  1 space group operations
 (whereof  1 operations were pure point group operations)
 out of a pool of 16 trial point group operations.

The static configuration has the point symmetry C_1 .

Analysis of symmetry for dynamics (positions and initial velocities):
 Subroutine PRICEL returns:
 Original cell was already a primitive cell.

[...]

The dynamic configuration has the point symmetry C_1 .

Analysis of constrained symmetry for selective dynamics:
 Subroutine PRICEL returns:
 Original cell was already a primitive cell.

[...]

The constrained configuration has the point symmetry C_1 .

Analysis of structural, dynamic, and magnetic symmetry:
 Subroutine PRICEL returns:
 Original cell was already a primitive cell.

 Routine SETGRP: Setting up the symmetry group for a
 simple tetragonal supercell.

 Subroutine GETGRP returns: Found  1 space group operations
 (whereof  1 operations were pure point group operations)
 out of a pool of 16 trial point group operations.

The magnetic configuration has the point symmetry C_1 .

 Subroutine INISYM returns: Found  1 space group operations
 (whereof  1 operations are pure point group operations),
[...]
   0.529E+00 -.175E+01 0.393E+04   -.530E+00 0.198E+01 -.392E+04   -.123E-01 -.262E+00 -.330E+01   -.202E-03 -.616E-03 0.237E-01
   0.248E-01 0.261E-01 0.392E+04   -.861E-02 -.258E-01 -.392E+04   -.196E-01 -.134E-02 -.358E+01   -.318E-03 -.112E-03 0.237E-01
   -.135E+01 0.260E+01 0.393E+04   0.138E+01 -.264E+01 -.392E+04   -.483E-01 0.455E-01 -.327E+01   -.907E-03 0.675E-03 0.229E-01
   -.130E+01 0.830E-01 0.393E+04   0.139E+01 -.819E-01 -.392E+04   -.120E+00 -.334E-02 -.341E+01   -.850E-03 0.191E-03 0.236E-01
   -.141E+01 -.237E+01 0.393E+04   0.144E+01 0.242E+01 -.392E+04   -.456E-01 -.491E-01 -.327E+01   -.102E-02 -.701E-03 0.229E-01
   -.858E+00 0.537E-01 0.392E+04   0.852E+00 -.540E-01 -.392E+04   -.491E-02 -.133E-02 -.376E+01   -.120E-02 -.986E-04 0.220E-01
   -.360E+01 0.455E+01 0.138E+04   0.354E+01 -.457E+01 -.138E+04   0.658E-01 0.163E-01 -.408E+00   0.237E-03 0.457E-02 0.572E-01
   -.338E+01 0.556E+01 0.139E+04   0.340E+01 -.549E+01 -.138E+04   -.155E-01 -.730E-01 -.485E+00   0.199E-02 0.642E-02 0.558E-01
   -.333E+01 -.559E+01 0.138E+04   0.335E+01 0.553E+01 -.138E+04   -.126E-01 0.648E-01 -.483E+00   -.268E-02 0.252E-02 0.511E-01
   -.364E+01 -.468E+01 0.138E+04   0.357E+01 0.470E+01 -.138E+04   0.669E-01 -.229E-01 -.403E+00   -.283E-02 0.105E-02 0.519E-01
   0.379E+01 0.342E+01 0.138E+04   -.370E+01 -.338E+01 -.138E+04   -.808E-01 -.436E-01 -.457E+00   -.181E-02 0.291E-02 0.458E-01
   0.332E+01 0.533E+01 0.139E+04   -.333E+01 -.527E+01 -.139E+04   0.987E-02 -.646E-01 -.409E+00   0.531E-02 0.862E-02 0.479E-01
   0.328E+01 -.538E+01 0.139E+04   -.329E+01 0.532E+01 -.139E+04   0.116E-01 0.558E-01 -.405E+00   0.421E-02 0.732E-03 0.440E-01
   0.380E+01 -.354E+01 0.138E+04   -.372E+01 0.350E+01 -.138E+04   -.806E-01 0.372E-01 -.458E+00   -.319E-02 0.536E-02 0.444E-01
   0.328E+01 0.381E+01 0.138E+04   -.322E+01 -.379E+01 -.138E+04   -.615E-01 -.141E-01 -.488E+00   0.315E-02 -.206E-02 0.560E-01
   0.392E+01 0.613E+01 0.139E+04   -.396E+01 -.619E+01 -.139E+04   0.380E-01 0.547E-01 -.252E+00   0.400E-02 0.181E-02 0.667E-01
   0.400E+01 -.601E+01 0.139E+04   -.403E+01 0.607E+01 -.139E+04   0.378E-01 -.534E-01 -.247E+00   0.385E-02 -.500E-02 0.646E-01
   0.327E+01 -.391E+01 0.138E+04   -.321E+01 0.389E+01 -.138E+04   -.611E-01 0.185E-01 -.484E+00   0.466E-02 -.451E-02 0.543E-01
   -.368E+01 0.433E+01 0.138E+04   0.363E+01 -.425E+01 -.138E+04   0.629E-01 -.718E-01 -.560E+00   -.385E-02 -.899E-03 0.588E-01
   -.399E+01 0.693E+01 0.140E+04   0.405E+01 -.702E+01 -.140E+04   -.588E-01 0.867E-01 -.303E+00   -.709E-05 0.144E-02 0.656E-01
   -.405E+01 -.684E+01 0.140E+04   0.411E+01 0.693E+01 -.140E+04   -.585E-01 -.896E-01 -.301E+00   0.112E-03 -.159E-02 0.638E-01
   -.365E+01 -.440E+01 0.138E+04   0.359E+01 0.433E+01 -.138E+04   0.646E-01 0.747E-01 -.561E+00   -.470E-02 -.356E-02 0.587E-01
   0.162E+00 0.160E+02 -.121E+04   -.218E+00 -.161E+02 0.121E+04   0.288E-01 0.807E-01 0.510E+00   0.280E-01 0.265E-01 0.504E-01
   -.324E+00 -.490E-01 -.120E+04   0.297E+00 0.453E-01 0.120E+04   -.133E-01 -.140E-01 0.583E+00   0.434E-01 0.172E-01 0.474E-01
   0.106E+00 -.162E+02 -.121E+04   -.162E+00 0.163E+02 0.121E+04   0.322E-01 -.967E-01 0.513E+00   0.255E-01 -.442E-02 0.458E-01
   -.934E-01 -.511E-01 -.125E+04   0.115E+00 0.490E-01 0.125E+04   -.233E-01 -.504E-02 0.269E+00   0.212E-02 0.814E-02 0.480E-01
   0.221E+02 0.234E+02 -.123E+04   -.215E+02 -.229E+02 0.123E+04   -.622E+00 -.570E+00 -.302E+00   0.237E-01 0.151E-03 0.582E-01
   0.175E+02 0.125E+00 -.121E+04   -.175E+02 -.124E+00 0.121E+04   -.943E-01 -.311E-02 0.288E+00   0.443E-01 0.360E-02 0.787E-01
   0.224E+02 -.236E+02 -.123E+04   -.218E+02 0.230E+02 0.123E+04   -.619E+00 0.571E+00 -.297E+00   0.190E-01 -.774E-04 0.544E-01
   0.130E+02 -.659E-01 -.122E+04   -.131E+02 0.653E-01 0.122E+04   0.124E+00 0.604E-03 0.375E+00   -.304E-02 0.788E-03 0.371E-01
   0.700E+00 0.254E+02 -.123E+04   -.788E+00 -.249E+02 0.123E+04   0.714E-01 -.494E+00 -.370E+00   0.186E-01 0.568E-02 0.721E-01
   0.443E+01 0.390E+00 -.118E+04   -.446E+01 -.389E+00 0.118E+04   0.899E-02 -.120E-02 0.958E+00   0.326E-01 -.205E-03 0.772E-01
   0.536E+00 -.257E+02 -.123E+04   -.628E+00 0.252E+02 0.123E+04   0.757E-01 0.499E+00 -.367E+00   0.174E-01 -.959E-02 0.702E-01
   -.635E+00 -.258E-01 -.120E+04   0.655E+00 0.258E-01 0.120E+04   -.174E-01 0.279E-02 0.551E+00   -.222E-02 -.300E-02 0.379E-01
   -.234E+02 0.250E+02 -.123E+04   0.229E+02 -.246E+02 0.123E+04   0.439E+00 -.380E+00 -.989E-01   0.216E-01 0.373E-02 0.635E-01
   -.215E+02 -.357E-01 -.121E+04   0.215E+02 0.323E-01 0.121E+04   0.229E-01 -.761E-02 0.211E+00   0.378E-01 0.118E-01 0.539E-01
   -.235E+02 -.251E+02 -.123E+04   0.230E+02 0.247E+02 0.123E+04   0.436E+00 0.364E+00 -.939E-01   0.239E-01 0.152E-01 0.617E-01
   -.128E+02 -.680E-01 -.121E+04   0.129E+02 0.677E-01 0.121E+04   -.580E-01 -.454E-02 0.312E+00   0.281E-03 0.571E-02 0.509E-01
   -.217E+02 0.239E+02 -.381E+04   0.218E+02 -.241E+02 0.381E+04   -.175E+00 0.175E+00 0.355E+01   -.118E-01 0.301E-02 0.208E-01
   -.444E+02 0.228E+02 -.378E+04   0.446E+02 -.229E+02 0.377E+04   -.180E+00 0.962E-01 0.345E+01   0.171E-01 0.475E-02 0.187E-01
   -.445E+02 -.231E+02 -.378E+04   0.447E+02 0.232E+02 0.377E+04   -.178E+00 -.945E-01 0.345E+01   0.189E-01 -.236E-02 0.228E-01
   -.217E+02 -.237E+02 -.381E+04   0.219E+02 0.238E+02 0.381E+04   -.179E+00 -.174E+00 0.355E+01   -.581E-02 -.492E-02 0.257E-01
   0.232E+02 0.250E+02 -.381E+04   -.233E+02 -.252E+02 0.381E+04   0.171E+00 0.147E+00 0.354E+01   -.298E-02 0.626E-03 0.151E-01
   0.432E+02 0.215E+02 -.377E+04   -.435E+02 -.216E+02 0.377E+04   0.258E+00 0.135E+00 0.339E+01   0.404E-01 0.716E-03 0.352E-01
   0.430E+02 -.220E+02 -.377E+04   -.433E+02 0.221E+02 0.377E+04   0.264E+00 -.117E+00 0.338E+01   0.371E-01 -.168E-01 0.426E-01
   0.230E+02 -.245E+02 -.381E+04   -.232E+02 0.246E+02 0.381E+04   0.163E+00 -.131E+00 0.354E+01   0.121E-02 -.171E-01 0.127E-01
   0.171E+02 0.499E+02 -.379E+04   -.171E+02 -.498E+02 0.378E+04   0.573E-01 -.421E-01 0.326E+01   -.844E-02 0.268E-02 0.149E-01
   0.101E+03 0.143E+03 -.368E+04   -.102E+03 -.143E+03 0.368E+04   0.586E+00 0.563E+00 -.370E+00   0.583E-01 0.188E-01 0.137E-01
   0.101E+03 -.142E+03 -.368E+04   -.102E+03 0.143E+03 0.368E+04   0.568E+00 -.577E+00 -.397E+00   0.487E-01 0.108E-01 0.440E-01
   0.173E+02 -.497E+02 -.379E+04   -.173E+02 0.497E+02 0.378E+04   0.555E-01 0.220E-01 0.327E+01   -.639E-02 0.939E-02 0.690E-02
   -.188E+02 0.489E+02 -.378E+04   0.188E+02 -.488E+02 0.378E+04   0.130E-01 -.710E-01 0.319E+01   -.212E-01 0.787E-02 0.204E-01
   -.100E+03 0.149E+03 -.367E+04   0.102E+03 -.150E+03 0.367E+04   -.159E+01 0.160E+01 0.294E+01   0.212E-01 0.299E-01 0.235E-01
   -.101E+03 -.149E+03 -.367E+04   0.102E+03 0.151E+03 0.367E+04   -.162E+01 -.161E+01 0.295E+01   0.228E-01 -.104E-01 0.212E-01
   -.188E+02 -.489E+02 -.378E+04   0.188E+02 0.488E+02 0.378E+04   0.119E-01 0.683E-01 0.319E+01   -.205E-01 -.410E-02 0.205E-01
   0.124E+03 -.276E+00 -.215E+04   -.136E+03 0.133E+00 0.213E+04   0.121E+02 0.148E+00 0.124E+02   -.280E-02 -.430E-02 -.666E-02
   -.148E+03 0.189E+00 -.263E+04   0.176E+03 -.240E+00 0.265E+04   -.281E+02 0.618E-01 -.180E+02   0.483E-03 -.857E-02 -.101E-01
   0.367E+02 -.605E+00 -.483E+03   -.390E+02 0.656E+00 0.489E+03   0.231E+01 -.561E-01 -.679E+01   0.795E-03 -.221E-03 -.355E-02
   0.152E+02 -.159E+00 0.228E+02   0.199E-12 -.329E-12 0.276E-10   -.158E+02 0.332E-01 -.252E+02   0.528E+00 0.119E+00 0.250E+01

 POSITION                                       TOTAL-FORCE (eV/Angst)
      1.26140      1.26140     12.31431        -0.005569     -0.015449     -0.007367
      1.26140      3.78419     12.31431        -0.010592     -0.001632      0.009471
      1.26140      6.30699     12.31431        -0.005329      0.011093     -0.007093
      1.26140      8.82979     12.31431        -0.004741     -0.001724      0.047467
      3.78419      1.26140     12.31431         0.004338     -0.000257     -0.006025
      3.78419      3.78419     12.31431         0.010327     -0.001120      0.010768
      3.78419      6.30699     12.31431         0.003948     -0.003022     -0.005560
      3.78419      8.82979     12.31431        -0.000384     -0.000953     -0.001790
      6.30699      1.26140     12.31431        -0.012400      0.021267      0.003169
      6.30699      3.78419     12.31431        -0.014014     -0.001296      0.008716
      6.30699      6.30699     12.31431        -0.011832     -0.024859      0.003216
      6.30699      8.82979     12.31431        -0.002957     -0.001038     -0.003585
      8.82979      1.26140     12.31431        -0.018407      0.000101     -0.005606
      8.82979      3.78419     12.31431        -0.030607     -0.001840      0.000103
      8.82979      6.30699     12.31431        -0.017951     -0.005208     -0.005644
      8.82979      8.82979     12.31431        -0.011085     -0.001539      0.014863
     10.08358      0.00231     14.09114         0.002382      0.000647      0.002111
     10.08081      2.52301     14.09267         0.003328      0.000066      0.000623
     10.08097      5.04276     14.09285         0.003150      0.001520     -0.000297
     10.08360      7.56341     14.09134         0.003065      0.001916      0.001317
      2.52446     10.09082     14.09050        -0.000847      0.000424      0.001145
      2.51940      2.52215     14.09114         0.002471      0.001239      0.000544
      2.51939      5.04426     14.09133         0.002763      0.000242     -0.000353
      2.52432      7.56704     14.09037        -0.001080      0.001417      0.000165
      5.04595      0.00386     14.09310         0.001118      0.000107     -0.000745
      5.03980      2.52160     14.09462         0.003102      0.000115      0.001733
      5.03996      5.04542     14.09455         0.002639     -0.000498      0.001099
      5.04604      7.56335     14.09296         0.001650      0.000413     -0.000494
      7.56201      0.00454     14.09275         0.002428      0.000002      0.000258
      7.56258      2.52196     14.09289         0.002293     -0.000179      0.001573
      7.56280      5.04421     14.09293         0.002008      0.000531      0.001261
      7.56238      7.56185     14.09256         0.001219      0.000876      0.000102
      1.25277      1.25036     15.89367         0.000906     -0.001521     -0.005797
      1.24666      3.78261     15.89628         0.004806     -0.000450     -0.002625
      1.25278      6.31490     15.89355         0.001861      0.002327     -0.004194
      1.25930      8.82833     15.91432        -0.000820      0.001012     -0.006442
      3.79057      1.27289     15.92483         0.005161      0.003057     -0.001769
      3.78277      3.78269     15.91154         0.004990      0.000743     -0.002380
      3.79070      6.29349     15.92395         0.004451     -0.003619     -0.000694
      3.77823      8.82860     15.89877        -0.002369      0.000708     -0.006698
      6.29607      1.28325     15.93295         0.001074      0.001757     -0.003077
      6.29521      3.78211     15.90227         0.004343     -0.000417     -0.002345
      6.29681      6.28141     15.93211         0.000369     -0.000146     -0.003448
      6.30306      8.82793     15.89645         0.000123     -0.000122     -0.007382
      8.80294      1.27267     15.92867         0.000117      0.002442     -0.004943
      8.79976      3.78152     15.91981         0.004507      0.000956     -0.004788
      8.80315      6.29051     15.92885         0.000603     -0.001354     -0.005278
      8.83185      8.82731     15.89396         0.000369      0.001049     -0.005657
     10.08515     10.08819     17.68283         0.001203      0.000841      0.000636
      0.00905      2.51526     17.67353         0.007723      0.002529     -0.000104
      0.00977      5.04802     17.67345         0.007024     -0.000073      0.000546
     10.08491      7.56682     17.68266         0.001342      0.000827      0.001242
      2.52340      0.00119     17.68493        -0.000275     -0.001516      0.000088
      2.47155      2.51838     17.67433         0.007939     -0.000212      0.000848
      2.47288      5.04962     17.67356         0.007567      0.000252      0.001067
      2.52307      7.56706     17.68469         0.000219     -0.000192      0.000132
      5.04205     10.06833     17.68159        -0.001142      0.007404     -0.000371
      4.96449      2.45829     17.77854         0.006320      0.000709     -0.000790
      4.96709      5.10409     17.77396         0.004689      0.002226      0.003270
      5.04196      7.58558     17.68138        -0.000881     -0.004116     -0.000446
      7.56592     10.06598     17.67737        -0.000025      0.005461      0.001338
      7.59904      2.46170     17.76865         0.004966      0.001063     -0.000531
      7.59951      5.09947     17.76855         0.005508      0.000550      0.000168
      7.56569      7.58680     17.67722         0.000348     -0.002038      0.001535
      5.57489      3.78260     19.08143        -0.003695      0.001513     -0.018408
      7.02722      3.78025     19.15745         0.010884      0.002367      0.004211
      5.25215      3.79059     20.05670         0.005361     -0.005379      0.007938
    total drift:                               -0.036472     -0.006818      0.023673

  FREE ENERGIE OF THE ION-ELECTRON SYSTEM (eV)
  free  energy   TOTEN  =      -259.48685991 eV

  energy  without entropy=     -259.47636545  energy(sigma->0) =     -259.48336176

 d Force = 0.7573266E-04[ 0.538E-04, 0.976E-04]  d Energy = 0.1164389E-03-0.407E-04
 d Force =-0.1324617E+02[-0.132E+02,-0.132E+02]  d Ewald  =-0.1324617E+02-0.103E-06

 reached required accuracy - stopping structural energy minimisation
 writing wavefunctions

 total charge

[...]

 magnetization (x)

# of ion       s       p       d       tot
    1        0.000   0.000  -0.000   0.000
    2       -0.000  -0.000   0.000   0.000
    3       -0.000   0.000   0.000  -0.000
    4       -0.000   0.000  -0.000   0.000
    5       -0.000   0.000  -0.000  -0.000
    6        0.000   0.000   0.000   0.000
    7        0.000   0.000   0.000   0.000
    8       -0.000  -0.000  -0.000  -0.000
    9        0.000  -0.000  -0.000  -0.000
   10        0.000   0.000   0.000   0.000
   11        0.000  -0.000  -0.000  -0.000
   12       -0.000  -0.000  -0.000  -0.000
   13       -0.000  -0.000  -0.000  -0.000
   14        0.000   0.000   0.000   0.000
   15        0.000   0.000  -0.000   0.000
   16       -0.000   0.000  -0.000  -0.000
   17       -0.000   0.000  -0.000  -0.000
   18       -0.000   0.000  -0.000  -0.000
   19       -0.000   0.000   0.000   0.000
   20       -0.000   0.000  -0.000  -0.000
   21        0.000   0.000  -0.000   0.000
   22       -0.000   0.000  -0.000  -0.000
   23       -0.000   0.000  -0.000  -0.000
   24       -0.000   0.000  -0.000  -0.000
   25       -0.000   0.000  -0.000  -0.000
   26       -0.000   0.000  -0.000  -0.000
   27       -0.000   0.000  -0.000  -0.000
   28       -0.000   0.000   0.000   0.000
   29       -0.000   0.000  -0.000  -0.000
   30       -0.000  -0.000   0.000  -0.000
   31       -0.000   0.000   0.000   0.000
   32       -0.000  -0.000   0.000  -0.000
   33        0.000  -0.000  -0.000   0.000
   34        0.000  -0.000  -0.000  -0.000
   35       -0.000  -0.000   0.000  -0.000
   36        0.000  -0.000   0.000   0.000
   37        0.000  -0.000   0.000   0.000
   38       -0.000   0.000  -0.000   0.000
   39        0.000  -0.000  -0.000  -0.000
   40        0.000  -0.000  -0.000  -0.000
   41        0.000   0.000  -0.000   0.000
   42        0.000  -0.000  -0.000   0.000
   43        0.000  -0.000  -0.000  -0.000
   44        0.000  -0.000   0.000   0.000
   45        0.000   0.000   0.000   0.000
   46       -0.000  -0.000   0.000  -0.000
   47       -0.000  -0.000   0.000  -0.000
   48        0.000   0.000  -0.000   0.000
   49        0.000  -0.000   0.000  -0.000
   50        0.000  -0.000  -0.000  -0.000
   51       -0.000  -0.000  -0.000  -0.000
   52       -0.000  -0.000   0.000   0.000
   53        0.000  -0.000  -0.000  -0.000
   54       -0.000  -0.000  -0.000  -0.000
   55        0.000   0.000   0.000   0.000
   56        0.000  -0.000   0.000  -0.000
   57       -0.000  -0.000  -0.000  -0.000
   58       -0.000   0.000   0.000   0.000
   59        0.000  -0.000   0.000  -0.000
   60        0.000  -0.000   0.000   0.000
   61        0.000  -0.000   0.000  -0.000
   62        0.000   0.000  -0.000   0.000
   63       -0.000  -0.000   0.000  -0.000
   64        0.000  -0.000   0.000   0.000
   65        0.000  -0.000   0.000  -0.000
   66       -0.000  -0.000   0.000  -0.000
   67       -0.000   0.000   0.000  -0.000
tot         -0.000  -0.000  -0.000  -0.000