 vasp.5.4.4.18Apr17-6-g9f103f2a35 (build May 01 2020 14:57:12) complex

 executed on             LinuxIFC date 2022.03.11  15:50:17

 INCAR:
 POTCAR:    PAW_PBE N 08Apr2002
 POTCAR:    PAW_PBE O 08Apr2002
 POTCAR:    PAW_PBE Pd 04Jan2005

 POTCAR:    PAW_PBE N 08Apr2002
   VRHFIN =N: s2p3

   TITEL  = PAW_PBE N 08Apr2002
   POMASS =   14.001; ZVAL   =    5.000    mass and valenz
   ENMAX  =  400.000; ENMIN  =  300.000 eV

 POTCAR:    PAW_PBE O 08Apr2002
   VRHFIN =O: s2p4

   TITEL  = PAW_PBE O 08Apr2002
   POMASS =   16.000; ZVAL   =    6.000    mass and valenz
   ENMAX  =  400.000; ENMIN  =  300.000 eV

 POTCAR:    PAW_PBE Pd 04Jan2005
   VRHFIN =Pd : s1 d9

   TITEL  = PAW_PBE Pd 04Jan2005
   POMASS =  106.420; ZVAL   =   10.000    mass and valenz
   ENMAX  =  250.925; ENMIN  =  188.194 eV

 Optimization of the real space projectors (new method)

 maximal supplied QI-value         = 25.13
 optimisation between [QCUT,QGAM] = [ 10.05, 20.36] = [ 28.30,116.06] Ry
 Optimized for a Real-space Cutoff    1.70 Angstroem

   l    n(q)    QCUT    max X(q) W(low)/X(q) W(high)/X(q)  e(spline)
   0     10    10.053    79.467    0.61E-04    0.98E-04    0.61E-06
   0     10    10.053    66.151    0.60E-04    0.98E-04    0.61E-06
   1     10    10.053     8.350    0.17E-03    0.71E-03    0.45E-05
   1     10    10.053     5.531    0.18E-03    0.77E-03    0.49E-05
 Optimization of the real space projectors (new method)

[...]

   l    n(q)    QCUT    max X(q) W(low)/X(q) W(high)/X(q)  e(spline)
   0      9    10.150    20.381    0.17E-03    0.18E-03    0.41E-06
   0      9    10.150    15.268    0.18E-03    0.20E-03    0.43E-06
   1      9    10.150     5.964    0.16E-03    0.20E-03    0.36E-06
   1      9    10.150     5.382    0.13E-03    0.16E-03    0.33E-06
 Optimization of the real space projectors (new method)

 maximal supplied QI-value         = 14.36
 optimisation between [QCUT,QGAM] = [ 10.20, 20.39] = [ 29.12,116.47] Ry
 Optimized for a Real-space Cutoff    1.55 Angstroem

   l    n(q)    QCUT    max X(q) W(low)/X(q) W(high)/X(q)  e(spline)
   2      9    10.197    59.108    0.12E-03    0.40E-04    0.11E-06
   2      9    10.197    58.101    0.12E-03    0.39E-04    0.12E-06
   0      9    10.197   102.235    0.41E-04    0.86E-05    0.83E-07
   0      9    10.197    58.388    0.37E-04    0.79E-05    0.78E-07
   1      9    10.197    22.191    0.25E-03    0.13E-03    0.84E-07
   1      9    10.197    15.590    0.21E-03    0.11E-03    0.74E-07
  PAW_PBE N 08Apr2002                   :
  PAW_PBE O 08Apr2002                   :
  PAW_PBE Pd 04Jan2005                  :

 POSCAR: N O Pd
  positions in direct lattice
  velocities in cartesian coordinates
 exchange correlation table for  LEXCH =        8
   RHO(1)=    0.500       N(1)  =     2000
   RHO(2)=  100.500       N(2)  =     4000

 ion  position               nearest neighbor table
   1  0.401  0.347  0.627-  79 1.89  75 1.94  80 1.95
   2  0.376  0.014  0.651-  12 1.19  74 1.99  78 2.00
   3  0.230  0.511  0.670-  13 1.18  76 1.92
   4  0.739  0.369  0.651-  14 1.19  83 1.99  84 1.99
   5  0.655  0.092  0.644-  15 1.21  82 2.03  78 2.23  83 2.26
   6  0.653  0.648  0.644-  16 1.21  85 2.04  84 2.17  81 2.20
   7  0.996  0.381  0.649-  17 1.19  72 1.95  71 1.99
   8  0.092  0.097  0.644-  18 1.21  70 2.01  71 2.19  74 2.22
   9  0.114  0.753  0.651-  19 1.19  73 1.95  77 2.00
  10  0.861  0.872  0.641-  20 1.21  82 2.15  85 2.17  73 2.29  70 2.41
  11  0.391  0.762  0.652-  21 1.19  81 1.96  77 2.02
  12  0.378  0.047  0.689-   2 1.19
  13  0.313  0.510  0.695-   3 1.18
  14  0.707  0.366  0.688-   4 1.19
  15  0.659  0.087  0.684-   5 1.21
  16  0.658  0.653  0.685-   6 1.21
  17  0.003  0.388  0.688-   7 1.19
  18  0.084  0.088  0.684-   8 1.21
  19  0.105  0.771  0.691-   9 1.19
  20  0.858  0.875  0.681-  10 1.21
  21  0.396  0.746  0.692-  11 1.19
  22  0.125  0.125  0.402-  43 2.73  25 2.74  23 2.74  34 2.74  26 2.75  38 2.75  42 2.77  39 2.78

  23  0.125  0.375  0.402-  43 2.73  35 2.74  22 2.74  27 2.75  24 2.75  44 2.76  39 2.76  40 2.79

[...]

  37  0.875  0.875  0.402-  50 2.73  34 2.74  25 2.74  36 2.75  33 2.75  41 2.77  38 2.77  53 2.78

  38  0.002  0.001  0.468-  42 2.73  50 2.75  22 2.75  25 2.76  39 2.76  41 2.76  69 2.76  66 2.77
                            34 2.77  37 2.77  57 2.79  54 2.80
  39  1.000  0.251  0.468-  51 2.72  43 2.73  40 2.73  66 2.75  35 2.75  38 2.76  23 2.76  54 2.77
                            34 2.77  22 2.78  55 2.78  67 2.81
  40  0.998  0.500  0.469-  52 2.72  55 2.73  44 2.73  39 2.73  41 2.73  68 2.75  36 2.76  35 2.77
                            24 2.79  23 2.79  56 2.82  67 2.83
  41  0.001  0.749  0.468-  45 2.73  69 2.73  40 2.73  24 2.75  38 2.76  25 2.76  36 2.77  53 2.77
                            37 2.77  56 2.77  68 2.80  57 2.81
  42  0.251  0.999  0.468-  58 2.70  45 2.72  38 2.73  57 2.74  46 2.74  29 2.76  25 2.76  43 2.76
                            26 2.77  22 2.77  54 2.80  61 2.85
  43  0.248  0.251  0.467-  59 2.67  39 2.73  23 2.73  22 2.73  27 2.75  54 2.75  26 2.76  42 2.76
                            58 2.76  47 2.78  44 2.79  55 2.81
  44  0.246  0.505  0.467-  59 2.67  24 2.70  45 2.72  40 2.73  28 2.75  23 2.76  55 2.77  48 2.78
                            60 2.78  43 2.79  27 2.80  56 2.83
  45  0.250  0.752  0.469-  44 2.72  42 2.72  49 2.72  41 2.73  60 2.73  57 2.74  25 2.77  29 2.77
                            24 2.79  28 2.80  56 2.81  61 2.84
  46  0.500  0.997  0.468-  49 2.71  58 2.71  42 2.74  33 2.74  29 2.75  62 2.75  65 2.76  47 2.76
                            50 2.76  30 2.78  26 2.78  61 2.84
  47  0.501  0.248  0.467-  30 2.72  59 2.72  26 2.73  31 2.74  63 2.74  58 2.75  51 2.75  27 2.75
                            46 2.76  43 2.78  48 2.79  62 2.80
  48  0.499  0.502  0.467-  59 2.67  49 2.72  28 2.73  32 2.74  27 2.75  64 2.76  52 2.76  63 2.76
                            31 2.76  44 2.78  47 2.79  60 2.84
  49  0.498  0.750  0.468-  46 2.71  48 2.72  45 2.72  65 2.74  28 2.76  29 2.76  53 2.76  64 2.78
                            60 2.78  32 2.79  33 2.79  61 2.84
  50  0.751  0.998  0.467-  62 2.73  37 2.73  53 2.74  33 2.75  38 2.75  69 2.76  34 2.76  46 2.76
                            51 2.76  30 2.77  66 2.79  65 2.81
  51  0.752  0.249  0.468-  63 2.72  39 2.72  34 2.74  52 2.75  47 2.75  66 2.75  35 2.75  30 2.76
                            50 2.76  62 2.76  31 2.77  67 2.79
  52  0.750  0.499  0.468-  63 2.71  40 2.72  53 2.73  51 2.75  48 2.76  35 2.76  68 2.76  31 2.76
                            36 2.76  32 2.77  64 2.79  67 2.81
  53  0.749  0.748  0.468-  52 2.73  50 2.74  32 2.74  36 2.75  69 2.76  49 2.76  33 2.77  41 2.77
                            65 2.77  37 2.78  68 2.78  64 2.80
  54  0.126  0.129  0.534-  58 2.74  66 2.75  43 2.75  74 2.76  55 2.76  39 2.77  57 2.77  71 2.77
                            38 2.80  42 2.80  70 2.80  75 2.88
  55  0.123  0.380  0.534-  40 2.73  56 2.73  59 2.75  75 2.75  54 2.76  67 2.76  44 2.77  39 2.78
                            43 2.81  72 2.87  71 2.87  76 2.88
  56  0.121  0.629  0.536-  60 2.72  55 2.73  68 2.73  57 2.73  76 2.75  41 2.77  73 2.78  45 2.81
                            40 2.82  72 2.83  44 2.83  77 2.98
  57  0.129  0.877  0.534-  61 2.71  56 2.73  45 2.74  42 2.74  70 2.77  54 2.77  69 2.78  38 2.79
                            41 2.81  73 2.87  77 2.88  74 2.94
  58  0.375  0.122  0.531-  42 2.70  79 2.71  61 2.71  46 2.71  54 2.74  47 2.75  43 2.76  62 2.78
                            59 2.81  74 2.85  75 2.87  78 2.94
  59  0.372  0.378  0.528-  48 2.67  44 2.67  43 2.67  80 2.70  75 2.70  47 2.72  55 2.75  60 2.75
                            63 2.79  58 2.81  79 2.86  76 3.15
  60  0.369  0.628  0.535-  61 2.72  56 2.72  45 2.73  80 2.74  59 2.75  64 2.77  49 2.78  44 2.78
                            48 2.84  81 2.85  76 2.88  77 2.95
  61  0.376  0.876  0.538-  65 2.71  57 2.71  58 2.71  60 2.72  77 2.79  78 2.83  49 2.84  46 2.84
                            45 2.84  42 2.85  81 2.91  74 2.94
  62  0.629  0.120  0.533-  79 2.66  66 2.72  50 2.73  65 2.73  46 2.75  51 2.76  58 2.78  63 2.79
                            47 2.80  82 2.82  83 2.83  78 2.84
  63  0.626  0.374  0.531-  67 2.70  79 2.71  52 2.71  51 2.72  64 2.73  47 2.74  48 2.76  62 2.79
                            59 2.79  84 2.85  80 2.88  83 2.95
  64  0.621  0.622  0.534-  63 2.73  81 2.73  65 2.74  48 2.76  68 2.76  84 2.77  60 2.77  49 2.78
                            52 2.79  53 2.80  85 2.83  80 2.90
  65  0.622  0.872  0.534-  61 2.71  62 2.73  64 2.74  49 2.74  46 2.76  53 2.77  69 2.79  82 2.80
                            50 2.81  85 2.82  78 2.86  81 2.88
  66  0.876  0.127  0.533-  67 2.70  62 2.72  54 2.75  39 2.75  51 2.75  70 2.77  38 2.77  69 2.79
                            50 2.79  82 2.82  83 2.84  71 2.92
  67  0.871  0.372  0.536-  66 2.70  63 2.70  72 2.74  68 2.75  55 2.76  51 2.79  39 2.81  52 2.81
                            40 2.83  83 2.85  71 2.94  84 2.95
  68  0.873  0.623  0.534-  72 2.71  56 2.73  69 2.75  40 2.75  67 2.75  52 2.76  85 2.76  64 2.76
                            53 2.78  41 2.80  73 2.85  84 2.96
  69  0.877  0.873  0.533-  41 2.73  68 2.75  50 2.76  82 2.76  53 2.76  38 2.76  70 2.78  57 2.78
                            66 2.79  65 2.79  85 2.81  73 2.81
  70  0.998  0.999  0.599-   8 2.01  10 2.41  82 2.67  71 2.71  73 2.71  74 2.74  66 2.77  57 2.77
                            69 2.78  54 2.80
  71  0.013  0.245  0.605-   7 1.99   8 2.19  70 2.71  75 2.76  54 2.77  72 2.85  55 2.87  83 2.92
                            66 2.92  67 2.94
  72  0.985  0.503  0.602-   7 1.95  68 2.71  67 2.74  73 2.75  76 2.75  84 2.82  56 2.83  71 2.85
                            55 2.87
  73  0.996  0.753  0.603-   9 1.95  10 2.29  85 2.66  70 2.71  72 2.75  56 2.78  69 2.81  77 2.82
                            68 2.85  57 2.87
  74  0.246  0.022  0.605-   2 1.99   8 2.22  70 2.74  75 2.74  54 2.76  77 2.84  58 2.85  78 2.88
                            57 2.94  61 2.94
  75  0.262  0.270  0.598-   1 1.94  79 2.68  76 2.69  59 2.70  74 2.74  55 2.75  71 2.76  58 2.87
                            54 2.88  80 3.35
  76  0.235  0.513  0.606-   3 1.92  75 2.69  80 2.69  56 2.75  72 2.75  77 2.76  55 2.88  60 2.88
                            59 3.15
  77  0.252  0.763  0.608-   9 2.00  11 2.02  76 2.76  61 2.79  73 2.82  74 2.84  81 2.85  57 2.88
                            60 2.95  56 2.98
  78  0.507  0.003  0.604-   2 2.00   5 2.23  79 2.67  82 2.73  61 2.83  62 2.84  65 2.86  74 2.88
                            58 2.94  81 2.94
  79  0.505  0.244  0.594-   1 1.89  62 2.66  78 2.67  83 2.68  80 2.68  75 2.68  63 2.71  58 2.71
                            59 2.86
  80  0.478  0.487  0.599-   1 1.95  79 2.68  76 2.69  59 2.70  60 2.74  81 2.76  84 2.77  63 2.88
                            64 2.90  75 3.35
  81  0.509  0.735  0.604-  11 1.96   6 2.20  85 2.68  64 2.73  80 2.76  77 2.85  60 2.85  65 2.88
                            61 2.91  78 2.94
  82  0.755  0.993  0.600-   5 2.03  10 2.15  70 2.67  85 2.68  83 2.72  78 2.73  69 2.76  65 2.80
[...]
   -.305E+00 0.329E+01 0.301E+04   0.371E+00 -.328E+01 -.301E+04   -.227E-01 -.108E-01 -.327E+01   -.204E-04 0.255E-02 -.629E-03
   0.286E+01 0.584E+01 0.301E+04   -.284E+01 -.585E+01 -.301E+04   -.231E-01 -.729E-01 -.326E+01   -.280E-03 -.384E-03 0.308E-03
   0.366E+01 -.394E+01 0.301E+04   -.363E+01 0.391E+01 -.301E+04   -.827E-01 0.711E-01 -.319E+01   -.485E-03 -.280E-02 -.731E-03
   0.306E+01 -.699E+01 0.301E+04   -.303E+01 0.696E+01 -.301E+04   -.764E-01 0.154E+00 -.335E+01   -.666E-03 0.475E-03 -.149E-02
   0.227E+01 0.430E+01 0.301E+04   -.224E+01 -.425E+01 -.301E+04   -.373E-01 -.896E-01 -.331E+01   -.446E-03 0.271E-02 -.473E-03
   -.285E+01 0.532E+01 0.301E+04   0.284E+01 -.521E+01 -.301E+04   0.632E-01 -.184E+00 -.330E+01   -.186E-04 -.460E-03 0.240E-03
   -.425E+01 -.360E+01 0.301E+04   0.425E+01 0.351E+01 -.301E+04   0.492E-01 0.897E-01 -.326E+01   -.763E-04 -.290E-02 -.827E-03
   -.124E+01 -.440E+01 0.301E+04   0.126E+01 0.442E+01 -.301E+04   -.490E-01 -.339E-02 -.335E+01   0.968E-04 0.508E-03 -.167E-02
   0.103E+01 0.500E+01 0.301E+04   -.110E+01 -.495E+01 -.301E+04   0.125E-01 -.971E-01 -.334E+01   0.731E-04 0.285E-02 -.607E-03
   -.386E+01 0.103E+01 0.301E+04   0.384E+01 -.101E+01 -.301E+04   0.568E-01 -.160E-01 -.333E+01   0.329E-03 -.545E-03 0.996E-04
   -.328E+01 -.339E+01 0.301E+04   0.327E+01 0.339E+01 -.301E+04   0.179E-01 0.116E-01 -.331E+01   0.540E-03 -.267E-02 -.902E-03
   -.273E+01 -.806E+00 0.301E+04   0.271E+01 0.723E+00 -.301E+04   0.149E-01 0.484E-01 -.329E+01   0.617E-03 0.502E-03 -.177E-02
   -.328E+01 0.419E+01 0.301E+04   0.327E+01 -.416E+01 -.301E+04   0.614E-01 -.893E-01 -.330E+01   0.391E-03 0.272E-02 -.778E-03
   -.282E+01 0.372E+00 0.139E+04   0.276E+01 -.396E+00 -.139E+04   0.685E-01 0.291E-01 0.175E+00   0.168E-03 0.176E-02 -.241E-02
   0.819E+00 -.482E+01 0.138E+04   -.798E+00 0.478E+01 -.138E+04   -.287E-01 0.461E-01 -.410E-01   0.193E-03 -.229E-02 -.212E-02
   0.148E+01 -.129E+00 0.137E+04   -.148E+01 0.138E+00 -.137E+04   -.620E-02 -.491E-02 -.118E+00   0.332E-03 -.186E-02 -.151E-02
   -.181E+01 0.369E+01 0.139E+04   0.180E+01 -.368E+01 -.139E+04   0.101E-01 -.130E-01 0.924E-01   0.382E-03 0.235E-02 -.181E-02
   0.110E+01 0.721E+01 0.139E+04   -.110E+01 -.718E+01 -.139E+04   0.823E-02 -.239E-01 -.793E-01   0.213E-05 0.167E-02 -.217E-02
   0.992E+01 0.252E+01 0.141E+04   -.992E+01 -.247E+01 -.141E+04   0.437E-02 -.532E-01 0.395E-01   0.237E-04 -.228E-02 -.200E-02
   0.853E+01 -.787E+01 0.140E+04   -.855E+01 0.792E+01 -.140E+04   0.146E-01 -.412E-01 0.570E-01   -.200E-03 -.171E-02 -.133E-02
   -.118E+01 -.112E+01 0.136E+04   0.116E+01 0.110E+01 -.136E+04   0.266E-01 0.300E-01 -.216E+00   -.102E-03 0.242E-02 -.153E-02
   0.332E+01 0.888E+01 0.139E+04   -.331E+01 -.891E+01 -.139E+04   -.789E-02 0.190E-01 -.108E+00   -.184E-03 0.189E-02 -.172E-02
   -.272E+01 0.288E+01 0.143E+04   0.274E+01 -.290E+01 -.143E+04   -.125E-01 0.304E-01 0.255E+00   -.255E-03 -.243E-02 -.151E-02
   -.239E+01 -.110E+02 0.142E+04   0.234E+01 0.110E+02 -.142E+04   0.469E-01 0.256E-01 0.586E-01   -.351E-03 -.197E-02 -.736E-03
   0.345E+01 -.157E+01 0.138E+04   -.342E+01 0.156E+01 -.138E+04   -.275E-01 0.117E-01 -.272E-01   -.339E-03 0.260E-02 -.964E-03
   -.113E+01 0.201E+01 0.141E+04   0.127E+01 -.216E+01 -.141E+04   -.142E+00 0.148E+00 0.179E+00   0.227E-04 0.183E-02 -.196E-02
   -.739E+01 -.287E+01 0.140E+04   0.741E+01 0.287E+01 -.140E+04   -.124E-01 0.271E-02 -.114E+00   0.345E-04 -.244E-02 -.165E-02
   -.833E+01 -.316E+01 0.139E+04   0.830E+01 0.318E+01 -.139E+04   0.382E-01 -.220E-01 -.107E+00   0.215E-03 -.193E-02 -.922E-03
   -.174E+00 0.328E+01 0.140E+04   0.204E+00 -.325E+01 -.140E+04   -.367E-01 -.357E-01 0.156E+00   0.747E-04 0.255E-02 -.123E-02
   0.809E-01 -.960E+01 -.257E+03   -.339E-01 0.971E+01 0.257E+03   -.425E-01 -.103E+00 -.135E+00   0.152E-03 -.276E-03 -.278E-02
   0.170E+02 -.299E+01 -.276E+03   -.170E+02 0.302E+01 0.275E+03   -.434E-01 -.239E-01 0.625E+00   0.111E-03 -.188E-02 -.150E-02
   -.449E+01 0.279E+01 -.320E+03   0.435E+01 -.295E+01 0.320E+03   0.136E+00 0.181E+00 0.457E-01   0.242E-03 0.211E-03 -.616E-03
   -.130E+02 0.556E+01 -.272E+03   0.132E+02 -.553E+01 0.271E+03   -.182E+00 -.235E-01 0.370E+00   0.265E-03 0.192E-02 -.195E-02
   0.884E+01 0.139E+02 -.207E+03   -.885E+01 -.141E+02 0.207E+03   0.128E-01 0.284E+00 0.746E+00   0.202E-03 -.147E-03 -.275E-02
   0.122E+02 -.961E+01 -.108E+03   -.123E+02 0.979E+01 0.106E+03   0.131E+00 -.170E+00 0.150E+01   0.109E-03 -.215E-02 -.140E-02
   0.901E+01 -.907E+01 -.287E+03   -.910E+01 0.935E+01 0.287E+03   0.653E-01 -.280E+00 0.325E+00   0.187E-04 0.241E-03 -.438E-03
[...]
   0.343E+02 -.752E+02 -.191E+04   -.343E+02 0.748E+02 0.191E+04   0.287E-02 0.378E+00 0.835E+00   -.755E-04 -.616E-03 -.372E-04
   0.334E+02 0.920E+02 -.187E+04   -.329E+02 -.927E+02 0.187E+04   -.527E+00 0.655E+00 0.653E+00   -.165E-03 0.592E-03 -.226E-03
   0.725E+00 0.480E+01 -.191E+04   -.300E+00 -.438E+01 0.191E+04   -.429E+00 -.363E+00 0.654E+00   0.116E-03 0.518E-03 -.142E-02
   0.804E+02 0.501E+02 -.190E+04   -.782E+02 -.483E+02 0.190E+04   -.212E+01 -.177E+01 0.151E+01   0.218E-03 -.706E-03 -.114E-02
   0.336E+02 0.114E+02 -.191E+04   -.333E+02 -.112E+02 0.191E+04   -.248E+00 -.243E+00 0.132E-01   0.155E-03 -.510E-03 -.232E-03
   -.290E+01 -.163E+02 -.190E+04   0.289E+01 0.162E+02 0.190E+04   0.779E-02 0.551E-01 -.273E+00   0.196E-03 0.537E-03 -.533E-03
   -.125E+02 0.579E+02 -.192E+04   0.122E+02 -.573E+02 0.192E+04   0.353E+00 -.556E+00 0.916E+00   0.207E-03 0.585E-03 -.147E-02
   -.444E+02 0.373E+02 -.179E+04   0.426E+02 -.356E+02 0.178E+04   0.175E+01 -.176E+01 0.110E+01   0.312E-04 -.748E-03 -.149E-02
   -.627E+02 -.566E+02 -.189E+04   0.609E+02 0.545E+02 0.189E+04   0.183E+01 0.211E+01 0.163E+01   0.306E-04 -.637E-03 -.377E-03
   -.199E+02 -.389E+02 -.188E+04   0.194E+02 0.386E+02 0.188E+04   0.509E+00 0.250E+00 0.487E+00   0.112E-03 0.530E-03 -.434E-03
   0.643E+00 -.180E+02 -.183E+04   -.675E+00 0.182E+02 0.183E+04   0.279E-01 -.227E+00 0.134E+01   -.211E-03 0.623E-03 -.124E-02
   -.767E+02 0.334E+01 -.193E+04   0.763E+02 -.290E+01 0.193E+04   0.304E+00 -.446E+00 0.841E+00   -.132E-03 -.718E-03 -.122E-02
   -.526E+02 0.465E+01 -.193E+04   0.524E+02 -.486E+01 0.193E+04   0.176E+00 0.218E+00 0.443E+00   -.104E-03 -.450E-03 -.215E-03
   -.125E+02 0.200E+02 -.185E+04   0.123E+02 -.204E+02 0.185E+04   0.182E+00 0.304E+00 0.146E+01   -.197E-03 0.683E-03 -.221E-03
   0.340E+01 0.118E+02 0.356E+03   -.350E-12 0.391E-13 -.273E-11   -.341E+01 -.118E+02 -.356E+03   0.669E-04 -.750E-04 -.627E-01

 POSITION                                       TOTAL-FORCE (eV/Angst)
      4.40284      3.81108     18.80735         0.010369     -0.003317     -0.001050
      4.12959      0.15454     19.51996        -0.000327     -0.003973     -0.003078
      2.52456      5.61180     20.09377         0.009576     -0.002618      0.007479
      8.11243      4.05627     19.51592         0.003175     -0.001611      0.009160
      7.19124      1.00560     19.30960         0.009792     -0.001279      0.000874
      7.17449      7.11634     19.33079         0.005742      0.002228      0.001472
     10.93403      4.17955     19.45847         0.003437      0.003837     -0.001509
      1.01106      1.06108     19.32474         0.000097     -0.000235     -0.002506
      1.25608      8.27492     19.54302        -0.004644     -0.001645     -0.006476
      9.45208      9.57561     19.23544         0.000226     -0.011265     -0.005429
      4.29458      8.37324     19.56853        -0.001286      0.003389     -0.005293
      4.15426      0.51807     20.65612         0.000466      0.015776      0.002250
      3.43444      5.59548     20.83933         0.005505      0.005228     -0.005655
      7.76077      4.01871     20.65496         0.005353      0.003888     -0.006858
      7.23235      0.95730     20.51324         0.007105      0.001386      0.004443
      7.22511      7.17465     20.53541         0.000282     -0.002612     -0.000134
      0.02827      4.26476     20.64727         0.008639      0.002164     -0.007613
      0.91782      0.96118     20.52556        -0.002322      0.003076      0.002368
      1.15831      8.46172     20.71703         0.004555      0.011560      0.004987
      9.42093      9.60668     20.44397         0.004342      0.008145      0.000591
      4.34984      8.19630     20.74848        -0.002970     -0.009517     -0.000914
      1.37281      1.37231     12.07416        -0.011590      0.007799     -0.011247
      1.37237      4.11717     12.07279        -0.091597      0.045982      0.005971
      1.37283      6.86390     12.07254        -0.056143      0.055629     -0.022690
      1.37322      9.60984     12.07387         0.042714      0.001738      0.045672
      4.11785      1.37226     12.07382        -0.002258     -0.077014      0.039898
      4.11785      4.11678     12.07218        -0.043537      0.034544      0.011620
      4.11766      6.86355     12.07145        -0.047123      0.115522      0.025496
      4.11764      9.60987     12.07320         0.001325     -0.037462     -0.105584
      6.86388      1.37249     12.07322         0.056372     -0.069548     -0.022209
      6.86428      4.11656     12.07186         0.045884     -0.011973     -0.011678
      6.86432      6.86309     12.07021        -0.029185      0.012586      0.016907
      6.86393      9.61002     12.07156        -0.055193     -0.045523      0.041597
      9.60986      1.37255     12.07352         0.030237      0.004748      0.018102
      9.60993      4.11697     12.07256         0.010308      0.004283     -0.088970
      9.61053      6.86344     12.07139        -0.000790     -0.033582      0.052026
      9.61051      9.60998     12.07225         0.047756     -0.058193      0.056793
      0.01836      0.00573     14.03755         0.000528      0.002854      0.007300
     10.97759      2.76186     14.04268        -0.003803      0.001456      0.000009
     10.95928      5.49490     14.05725        -0.000757      0.002544     -0.003539
      0.01238      8.22936     14.03963        -0.005465     -0.000558     -0.004285
      2.75143     10.97180     14.04129         0.003395      0.005476      0.000246
      2.72085      2.75204     14.01257         0.010473     -0.000187      0.003944
      2.70287      5.54225     14.02026         0.004463     -0.004650      0.002621
      2.74200      8.25672     14.06715         0.001230      0.004748     -0.010252
      5.49360     10.94871     14.03677         0.001682      0.000208      0.000364
      5.50476      2.72295     13.99951         0.001929      0.007855      0.001521
      5.48368      5.51425     14.01064        -0.002150      0.002204     -0.008756
      5.46426      8.23526     14.05257         0.011095     -0.003438      0.006153
      8.25230     10.95694     14.02283        -0.001246      0.004766      0.001979
      8.25542      2.73387     14.02820        -0.005682      0.001061     -0.006757
      8.24006      5.48398     14.03597         0.004344     -0.000474      0.000978
      8.22576      8.21421     14.03278        -0.001251      0.005580     -0.004644
      1.38844      1.42009     16.02221         0.001914     -0.003773     -0.001931
      1.34675      4.17789     16.01099        -0.008806     -0.006867      0.001237
      1.33226      6.90455     16.08854        -0.000487      0.007693     -0.000648
      1.42018      9.63414     16.03021         0.001405      0.004861     -0.002818
      4.12088      1.34202     15.93185        -0.004511      0.000787     -0.000181
      4.08690      4.15386     15.82979        -0.000042      0.003632     -0.002016
      4.05448      6.89912     16.04217        -0.007290     -0.008323     -0.004433
[...]
      0.14196      2.68614     18.14964        -0.001370      0.008467     -0.000179
     10.82124      5.51873     18.04949        -0.000653      0.000451     -0.000672
     10.93658      8.26439     18.08775         0.005660     -0.003896     -0.000371
      2.69832      0.24111     18.14209         0.000424      0.003884      0.005987
      2.88253      2.96838     17.94024        -0.000958     -0.002928     -0.001251
      2.58293      5.62835     18.17254        -0.005529     -0.003127     -0.006116
      2.76676      8.38286     18.24131        -0.002530      0.001812      0.000123
      5.56901      0.03482     18.12999         0.008598      0.000409     -0.001205
      5.54747      2.68440     17.80778        -0.007952      0.000364      0.002551
      5.24994      5.34439     17.95562         0.010292      0.001127     -0.002679
      5.59407      8.07541     18.12925        -0.001099      0.007945      0.014182
      8.29173     10.90152     17.99566        -0.006676      0.002312      0.001088
      8.20427      2.63798     18.12124         0.011270     -0.001413     -0.015088
      8.00759      5.49871     18.14356         0.010848      0.000076     -0.010372
      8.27277      8.22136     18.02131        -0.002457     -0.003109      0.003824
    total drift:                               -0.007424     -0.000257      0.010564

  FREE ENERGIE OF THE ION-ELECTRON SYSTEM (eV)
  free  energy   TOTEN  =      -487.25105655 eV

  energy  without entropy=     -487.10106224  energy(sigma->0) =     -487.20105845

 reached required accuracy - stopping structural energy minimisation

 total charge

[...]

 magnetization (x)

# of ion       s       p       d       tot
    1       -0.000  -0.000   0.000  -0.000
    2        0.000  -0.000   0.000  -0.000
    3       -0.000  -0.000   0.000  -0.000
    4        0.000  -0.000   0.000  -0.000
    5       -0.000  -0.000   0.000  -0.000
    6        0.000  -0.000   0.000  -0.000
    7        0.000  -0.000   0.000  -0.000
    8        0.000  -0.000   0.000  -0.000
    9        0.000   0.000   0.000   0.000
   10        0.000   0.000   0.000   0.000
   11        0.000   0.000   0.000   0.000
   12       -0.000  -0.000   0.000  -0.000
   13       -0.000  -0.000   0.000  -0.000
   14       -0.000  -0.000   0.000  -0.000
   15       -0.000  -0.000   0.000  -0.000
   16       -0.000  -0.000   0.000  -0.000
   17       -0.000  -0.000   0.000  -0.000
   18       -0.000  -0.000   0.000  -0.000
   19       -0.000  -0.000   0.000  -0.000
   20       -0.000   0.000   0.000  -0.000
   21       -0.000  -0.000   0.000  -0.000
   22       -0.000  -0.000   0.001   0.001
   23       -0.000  -0.000   0.001   0.001
   24       -0.000  -0.000   0.001   0.001
   25        0.000  -0.000   0.001   0.001
   26       -0.000  -0.000   0.001   0.001
   27       -0.000  -0.000   0.001   0.001
   28       -0.000  -0.000   0.001   0.001
   29       -0.000  -0.000   0.001   0.001
   30       -0.000  -0.000   0.001   0.001
   31       -0.000  -0.000   0.001   0.001
   32       -0.000  -0.000   0.001   0.001
   33       -0.000  -0.000   0.001   0.001
   34        0.000  -0.000   0.001   0.001
   35       -0.000  -0.000   0.001   0.001
   36        0.000  -0.000   0.001   0.001
   37       -0.000  -0.000   0.001   0.001
   38       -0.000  -0.000   0.001   0.001
   39       -0.000  -0.000   0.001   0.001
   40       -0.000  -0.000   0.001   0.001
   41       -0.000  -0.000   0.001   0.001
   42       -0.000  -0.000   0.001   0.001
   43       -0.000  -0.000   0.001   0.001
   44       -0.000  -0.000   0.001   0.001
   45       -0.000  -0.000   0.001   0.001
   46       -0.000  -0.000   0.001   0.001
   47       -0.000  -0.000   0.001   0.001
   48       -0.000  -0.000   0.001   0.001
   49       -0.000  -0.000   0.001   0.001
   50       -0.000  -0.000   0.001   0.001
   51       -0.000  -0.000   0.001   0.001
   52       -0.000  -0.000   0.001   0.001
   53       -0.000  -0.000   0.001   0.001
   54       -0.000  -0.000   0.000   0.000
   55       -0.000  -0.000   0.001   0.001
   56       -0.000  -0.000   0.000   0.000
   57       -0.000  -0.000   0.001   0.000
   58       -0.000  -0.000   0.001   0.001
   59       -0.000  -0.000   0.001   0.001
   60       -0.000  -0.000   0.000   0.000
[...]
   71       -0.000  -0.000   0.000   0.000
   72       -0.000  -0.000   0.000   0.000
   73       -0.000  -0.000   0.000   0.000
   74       -0.000  -0.000   0.000   0.000
   75       -0.000  -0.000   0.000   0.000
   76       -0.000  -0.000   0.000   0.000
   77       -0.000  -0.000   0.000   0.000
   78       -0.000  -0.000   0.000   0.000
   79       -0.000  -0.000   0.000   0.000
   80       -0.000  -0.000   0.000   0.000
   81       -0.000  -0.000   0.000   0.000
   82       -0.000  -0.000   0.000   0.000
   83       -0.000  -0.000   0.000   0.000
   84       -0.000  -0.000   0.000   0.000
   85       -0.000  -0.000   0.000   0.000
tot         -0.000  -0.001   0.035   0.034