 vasp.5.4.4.18Apr17-6-g9f103f2a35 (build May 01 2020 14:57:12) complex

 executed on             LinuxIFC date 2021.10.23  11:13:10

 INCAR:
 POTCAR:    PAW_PBE Pd 04Jan2005
 POTCAR:    PAW_PBE N 08Apr2002
 POTCAR:    PAW_PBE O 08Apr2002
 POTCAR:    PAW_PBE H 15Jun2001

 POTCAR:    PAW_PBE Pd 04Jan2005
   VRHFIN =Pd : s1 d9

   TITEL  = PAW_PBE Pd 04Jan2005
   POMASS =  106.420; ZVAL   =   10.000    mass and valenz
   ENMAX  =  250.925; ENMIN  =  188.194 eV

 POTCAR:    PAW_PBE N 08Apr2002
   VRHFIN =N: s2p3

   TITEL  = PAW_PBE N 08Apr2002
   POMASS =   14.001; ZVAL   =    5.000    mass and valenz
   ENMAX  =  400.000; ENMIN  =  300.000 eV

 POTCAR:    PAW_PBE O 08Apr2002
   VRHFIN =O: s2p4

   TITEL  = PAW_PBE O 08Apr2002
   POMASS =   16.000; ZVAL   =    6.000    mass and valenz
   ENMAX  =  400.000; ENMIN  =  300.000 eV

 POTCAR:    PAW_PBE H 15Jun2001
   VRHFIN =H: ultrasoft test

   TITEL  = PAW_PBE H 15Jun2001
   POMASS =    1.000; ZVAL   =    1.000    mass and valenz
   ENMAX  =  250.000; ENMIN  =  200.000 eV

 Optimization of the real space projectors (new method)

 maximal supplied QI-value         = 14.36
 optimisation between [QCUT,QGAM] = [ 10.20, 20.39] = [ 29.12,116.47] Ry
 Optimized for a Real-space Cutoff    1.55 Angstroem

   l    n(q)    QCUT    max X(q) W(low)/X(q) W(high)/X(q)  e(spline)
   2      9    10.197    59.108    0.12E-03    0.40E-04    0.11E-06
   2      9    10.197    58.101    0.12E-03    0.39E-04    0.12E-06
   0      9    10.197   102.235    0.41E-04    0.86E-05    0.83E-07
   0      9    10.197    58.388    0.37E-04    0.79E-05    0.78E-07
   1      9    10.197    22.191    0.25E-03    0.13E-03    0.84E-07
   1      9    10.197    15.590    0.21E-03    0.11E-03    0.74E-07
 Optimization of the real space projectors (new method)

[...]

   l    n(q)    QCUT    max X(q) W(low)/X(q) W(high)/X(q)  e(spline)
   0      9    10.150    20.381    0.17E-03    0.18E-03    0.41E-06
   0      9    10.150    15.268    0.18E-03    0.20E-03    0.43E-06
   1      9    10.150     5.964    0.16E-03    0.20E-03    0.36E-06
   1      9    10.150     5.382    0.13E-03    0.16E-03    0.33E-06
 Optimization of the real space projectors (new method)

 maximal supplied QI-value         = 34.20
 optimisation between [QCUT,QGAM] = [  9.92, 20.18] = [ 27.55,114.04] Ry
 Optimized for a Real-space Cutoff    1.34 Angstroem

   l    n(q)    QCUT    max X(q) W(low)/X(q) W(high)/X(q)  e(spline)
   0      8     9.919    19.460    0.16E-03    0.20E-03    0.36E-06
   0      8     9.919    12.209    0.16E-03    0.20E-03    0.35E-06
   1      8     9.919     4.655    0.19E-03    0.46E-03    0.40E-06
  PAW_PBE Pd 04Jan2005                  :
  PAW_PBE N 08Apr2002                   :
  PAW_PBE O 08Apr2002                   :
  PAW_PBE H 15Jun2001                   :

 POSCAR: Pd N O H
  positions in direct lattice
  velocities in cartesian coordinates
 exchange correlation table for  LEXCH =        8
   RHO(1)=    0.500       N(1)  =     2000
   RHO(2)=  100.500       N(2)  =     4000

 ion  position               nearest neighbor table
   1  0.125  0.125  0.403-   2 2.75   5 2.75   4 2.75  13 2.75  22 2.75  17 2.75  21 2.75  18 2.75

   2  0.125  0.375  0.403-   1 2.75   3 2.75   6 2.75  14 2.75  23 2.75  19 2.75  22 2.75  18 2.76

[...]

  17  1.000  0.000  0.468-  18 2.74  21 2.74  29 2.74  20 2.74  45 2.75  13 2.75   1 2.75  48 2.75
                            16 2.75   4 2.75  36 2.76  33 2.78
  18  0.000  0.250  0.468-  22 2.74  17 2.74  45 2.75  30 2.75  46 2.75  19 2.75  34 2.75   1 2.75
                            13 2.76   2 2.76  14 2.76  33 2.76
  19  0.000  0.500  0.468-  23 2.74  31 2.75  20 2.75  18 2.75  47 2.75  46 2.75   3 2.75   2 2.75
                            15 2.75  14 2.75  34 2.75  35 2.76
  20  0.000  0.750  0.468-  24 2.74  17 2.74  19 2.75  32 2.75  48 2.75  47 2.75  36 2.75   4 2.75
                             3 2.76  16 2.76  15 2.76  35 2.77
  21  0.250  1.000  0.468-  17 2.74  22 2.74  24 2.74  37 2.75   4 2.75  36 2.75   1 2.75  40 2.76
                            25 2.76   8 2.76   5 2.76  33 2.76
  22  0.250  0.250  0.468-  38 2.73  18 2.74  21 2.74   1 2.75  33 2.75  23 2.75   5 2.75  26 2.75
                            37 2.75   2 2.75  34 2.76   6 2.76
  23  0.250  0.500  0.468-  38 2.73  19 2.74  39 2.74  24 2.74  22 2.75   3 2.75   2 2.75  35 2.75
                            27 2.75  34 2.75   7 2.75   6 2.75
  24  0.250  0.750  0.468-  39 2.74  20 2.74  23 2.74  21 2.74  36 2.75  28 2.75  40 2.75   3 2.76
                             4 2.76   7 2.76   8 2.76  35 2.76
  25  0.500  1.000  0.468-  29 2.74  26 2.74  28 2.75  37 2.75  12 2.75   9 2.75  44 2.75   8 2.75
                            40 2.76  21 2.76   5 2.76  41 2.76
  26  0.500  0.250  0.468-  38 2.73  30 2.74  25 2.74  41 2.75   9 2.75  27 2.75   5 2.75  10 2.75
                            22 2.75  37 2.75  42 2.76   6 2.76
  27  0.500  0.500  0.468-  38 2.73  31 2.74  39 2.74  28 2.74  11 2.75  26 2.75  10 2.75  43 2.75
                            42 2.75  23 2.75   7 2.75   6 2.75
  28  0.500  0.750  0.468-  39 2.74  32 2.74  27 2.74  25 2.75  44 2.75  24 2.75  11 2.75  12 2.75
                            40 2.76   7 2.76   8 2.76  43 2.76
  29  0.750  0.000  0.468-  30 2.74  25 2.74  17 2.74  32 2.75  13 2.75  45 2.75  16 2.75  48 2.75
                             9 2.75  12 2.75  44 2.76  41 2.78
  30  0.750  0.250  0.468-  29 2.74  26 2.74  45 2.75  18 2.75  46 2.75  31 2.75  42 2.75   9 2.76
                            13 2.76  41 2.76  10 2.76  14 2.76
  31  0.750  0.500  0.468-  27 2.74  19 2.75  32 2.75  30 2.75  46 2.75  14 2.75  47 2.75  15 2.75
                            10 2.75  11 2.75  42 2.75  43 2.76
  32  0.750  0.750  0.468-  28 2.74  29 2.75  31 2.75  20 2.75  48 2.75  47 2.75  44 2.75  16 2.76
                            12 2.76  15 2.76  11 2.76  43 2.77
  33  0.126  0.126  0.534-  37 2.73  34 2.74  53 2.75  50 2.75  22 2.75  49 2.76  45 2.76  36 2.76
                            18 2.76  21 2.76  54 2.78  17 2.78
  34  0.125  0.375  0.533-  35 2.73  33 2.74  46 2.74  38 2.75  18 2.75  23 2.75  19 2.75  51 2.76
                            22 2.76  50 2.76  54 2.80  55 2.80
  35  0.126  0.624  0.534-  34 2.73  39 2.74  51 2.75  47 2.75  23 2.75  56 2.76  52 2.76  36 2.76
                            19 2.76  24 2.76  20 2.77  55 2.80
  36  0.125  0.875  0.533-  40 2.74  48 2.75  24 2.75  52 2.75  53 2.75  21 2.75  20 2.75  49 2.76
                            35 2.76  33 2.76  17 2.76  56 2.77
  37  0.375  0.124  0.533-  41 2.73  33 2.73  40 2.73  38 2.75  21 2.75  25 2.75  22 2.75  26 2.75
                            57 2.76  53 2.76  54 2.81  58 2.81
  38  0.375  0.374  0.532-  26 2.73  22 2.73  23 2.73  27 2.73  42 2.75  37 2.75  34 2.75  39 2.75
                            58 2.82  54 2.82  55 2.82  59 2.83
  39  0.375  0.625  0.533-  43 2.74  24 2.74  35 2.74  28 2.74  27 2.74  23 2.74  40 2.75  38 2.75
                            56 2.79  60 2.79  59 2.82  55 2.82
  40  0.375  0.875  0.533-  37 2.73  44 2.74  36 2.74  39 2.75  24 2.75  28 2.76  25 2.76  21 2.76
                            53 2.76  57 2.76  60 2.78  56 2.78
  41  0.624  0.126  0.534-  37 2.73  42 2.74  62 2.74  57 2.74  26 2.75  61 2.76  44 2.76  30 2.76
                            45 2.76  25 2.76  29 2.78  58 2.78
  42  0.625  0.375  0.533-  43 2.73  41 2.74  46 2.75  38 2.75  27 2.75  30 2.75  31 2.75  62 2.75
                            26 2.76  63 2.76  58 2.80  59 2.80
  43  0.624  0.624  0.534-  42 2.73  39 2.74  63 2.75  27 2.75  47 2.75  64 2.76  44 2.76  60 2.76
                            31 2.76  28 2.76  32 2.77  59 2.79
  44  0.625  0.875  0.533-  40 2.74  28 2.75  48 2.75  64 2.75  32 2.75  25 2.75  61 2.75  57 2.76
                            43 2.76  41 2.76  29 2.76  60 2.76
  45  0.875  0.125  0.533-  48 2.74  18 2.75  30 2.75  46 2.75  17 2.75  29 2.75  61 2.75  62 2.75
                            49 2.75  33 2.76  50 2.76  41 2.76
  46  0.875  0.375  0.533-  34 2.74  47 2.74  42 2.75  30 2.75  45 2.75  18 2.75  31 2.75  19 2.75
                            62 2.76  51 2.76  63 2.76  50 2.76
  47  0.875  0.625  0.533-  46 2.74  48 2.75  32 2.75  20 2.75  19 2.75  35 2.75  31 2.75  64 2.75
                            43 2.75  52 2.76  51 2.76  63 2.76
  48  0.875  0.875  0.533-  45 2.74  36 2.75  20 2.75  32 2.75  47 2.75  44 2.75  17 2.75  64 2.75
                            29 2.75  61 2.75  52 2.76  49 2.76
  49  1.000  1.000  0.598-  61 2.74  52 2.74  53 2.74  50 2.75  45 2.75  36 2.76  48 2.76  33 2.76

[...]

  54  0.250  0.250  0.600-  65 2.15  55 2.72  58 2.74  53 2.75  50 2.75  33 2.78  34 2.80  37 2.81
                            38 2.82
  55  0.251  0.498  0.601-  65 2.24  59 2.72  54 2.72  56 2.76  51 2.77  35 2.80  34 2.80  39 2.82
                            38 2.82
  56  0.249  0.749  0.599-  67 1.79  52 2.74  53 2.75  55 2.76  35 2.76  36 2.77  60 2.77  40 2.78
                            39 2.79
  57  0.500  0.000  0.598-  61 2.74  41 2.74  60 2.75  53 2.75  58 2.76  44 2.76  40 2.76  37 2.76

  58  0.500  0.251  0.600-  65 2.15  59 2.73  54 2.74  57 2.76  62 2.76  41 2.78  42 2.80  37 2.81
                            38 2.82
  59  0.499  0.499  0.601-  65 2.25  55 2.72  58 2.73  60 2.75  63 2.76  43 2.79  42 2.80  39 2.82
                            38 2.83
  60  0.501  0.750  0.599-  67 1.80  64 2.74  57 2.75  59 2.75  43 2.76  44 2.76  56 2.77  40 2.78
                            39 2.79
  61  0.750  1.000  0.598-  49 2.74  57 2.74  64 2.74  62 2.75  45 2.75  44 2.75  48 2.75  41 2.76

[...]

  65  0.375  0.367  0.635-  66 1.22  54 2.15  58 2.15  55 2.24  59 2.25
  66  0.374  0.367  0.676-  65 1.22
  67  0.375  0.656  0.615-  56 1.79  60 1.80

  LATTYP: Found a simple tetragonal cell.
 ALAT       =    10.9820000000
 C/A-ratio  =     2.7317428519

  Lattice vectors:

 A1 = (  10.9820000000,   0.0000000000,   0.0000000000)
 A2 = (   0.0000000000,  10.9820000000,   0.0000000000)
 A3 = (   0.0000000000,   0.0000000000,  30.0000000000)

Analysis of symmetry for initial positions (statically):
 Subroutine PRICEL returns:
 Original cell was already a primitive cell.

 Routine SETGRP: Setting up the symmetry group for a
 simple tetragonal supercell.

 Subroutine GETGRP returns: Found  1 space group operations
 (whereof  1 operations were pure point group operations)
 out of a pool of 16 trial point group operations.

The static configuration has the point symmetry C_1 .

Analysis of symmetry for dynamics (positions and initial velocities):
 Subroutine PRICEL returns:
 Original cell was already a primitive cell.

[...]

The dynamic configuration has the point symmetry C_1 .

Analysis of constrained symmetry for selective dynamics:
 Subroutine PRICEL returns:
 Original cell was already a primitive cell.

[...]

The constrained configuration has the point symmetry C_1 .

Analysis of structural, dynamic, and magnetic symmetry:
 Subroutine PRICEL returns:
 Original cell was already a primitive cell.

 Routine SETGRP: Setting up the symmetry group for a
 simple tetragonal supercell.

 Subroutine GETGRP returns: Found  1 space group operations
[...]
   -.276E+01 -.304E+01 0.266E+04   0.277E+01 0.305E+01 -.266E+04   0.183E-01 0.137E-01 -.331E+01   -.159E-01 -.147E-01 0.425E-01
   -.158E+01 0.218E+00 0.266E+04   0.161E+01 -.198E+00 -.266E+04   -.290E-02 0.418E-03 -.332E+01   -.108E-01 -.203E-01 0.110E-01
   -.750E-01 0.947E+00 0.266E+04   0.803E-01 -.982E+00 -.266E+04   0.287E-02 0.337E-01 -.331E+01   -.686E-02 0.115E-01 0.350E-02
   -.774E-01 0.547E+00 0.266E+04   0.869E-01 -.533E+00 -.266E+04   0.212E-02 -.383E-01 -.325E+01   -.107E-01 0.142E-01 0.304E-01
   -.135E+00 -.237E+01 0.266E+04   0.145E+00 0.239E+01 -.266E+04   0.445E-02 0.127E-01 -.328E+01   -.117E-01 -.107E-01 0.271E-01
   -.136E+00 0.875E+00 0.266E+04   0.143E+00 -.862E+00 -.266E+04   0.428E-02 -.153E-01 -.323E+01   -.795E-02 -.151E-01 0.208E-03
   0.787E+00 0.254E+01 0.935E+03   -.859E+00 -.255E+01 -.935E+03   0.881E-01 0.647E-02 0.668E-01   -.861E-02 0.469E-02 0.965E-02
   0.487E+01 0.415E+01 0.939E+03   -.487E+01 -.424E+01 -.939E+03   0.165E-01 0.388E-01 -.339E-01   -.681E-02 0.446E-01 0.495E-01
   0.550E+01 -.415E+01 0.943E+03   -.552E+01 0.418E+01 -.943E+03   0.196E-01 -.165E-01 -.801E-02   -.820E-02 -.564E-02 0.643E-01
   0.224E+01 -.235E+01 0.932E+03   -.224E+01 0.243E+01 -.933E+03   0.122E-01 -.393E-01 -.289E-01   -.854E-02 -.425E-01 0.338E-01
   0.392E+01 0.509E+01 0.941E+03   -.398E+01 -.511E+01 -.941E+03   0.426E-01 0.242E-01 -.265E-01   0.156E-01 0.839E-03 0.902E-03
   0.794E+01 0.827E+01 0.956E+03   -.798E+01 -.833E+01 -.956E+03   0.114E-01 0.648E-03 -.830E-01   0.197E-01 0.474E-01 0.378E-01
   0.806E+01 -.695E+01 0.957E+03   -.809E+01 0.697E+01 -.957E+03   -.515E-02 -.124E-01 -.995E-01   0.302E-01 -.451E-02 0.598E-01
   0.489E+01 -.636E+01 0.941E+03   -.494E+01 0.642E+01 -.941E+03   0.239E-01 -.116E-01 -.488E-01   0.251E-01 -.522E-01 0.328E-01
   -.398E+01 0.520E+01 0.941E+03   0.402E+01 -.522E+01 -.941E+03   -.398E-01 0.196E-01 -.271E-01   0.989E-02 -.169E-02 0.136E-01
   -.803E+01 0.818E+01 0.956E+03   0.804E+01 -.824E+01 -.956E+03   -.800E-02 0.563E-02 -.847E-01   0.103E-01 0.564E-01 0.536E-01
   -.797E+01 -.675E+01 0.958E+03   0.795E+01 0.677E+01 -.958E+03   0.738E-02 -.163E-01 -.108E+00   0.844E-02 -.238E-02 0.762E-01
   -.485E+01 -.657E+01 0.941E+03   0.486E+01 0.664E+01 -.941E+03   -.205E-01 -.954E-02 -.545E-01   0.123E-01 -.591E-01 0.458E-01
   -.718E+00 0.246E+01 0.935E+03   0.818E+00 -.246E+01 -.935E+03   -.913E-01 0.658E-02 0.718E-01   -.186E-01 0.496E-03 0.303E-01
   -.480E+01 0.420E+01 0.939E+03   0.483E+01 -.429E+01 -.939E+03   -.174E-01 0.387E-01 -.269E-01   -.221E-01 0.495E-01 0.722E-01
   -.563E+01 -.413E+01 0.943E+03   0.568E+01 0.415E+01 -.943E+03   -.193E-01 -.140E-01 -.693E-02   -.297E-01 -.548E-02 0.859E-01
   -.228E+01 -.242E+01 0.933E+03   0.231E+01 0.251E+01 -.933E+03   -.150E-01 -.385E-01 -.205E-01   -.235E-01 -.506E-01 0.573E-01
   0.209E+02 0.196E+02 -.837E+03   -.207E+02 -.195E+02 0.838E+03   -.168E+00 -.143E+00 -.193E+00   -.616E-02 0.554E-01 0.282E-01
   0.273E+02 0.729E+00 -.809E+03   -.274E+02 -.748E+00 0.809E+03   0.760E-01 -.225E-01 0.101E+00   0.518E-03 0.418E-01 0.441E-01
   0.193E+02 -.191E+02 -.836E+03   -.192E+02 0.190E+02 0.836E+03   -.642E-02 0.128E+00 -.672E-01   -.418E-02 -.537E-01 0.364E-01
   0.112E+02 -.119E+01 -.839E+03   -.111E+02 0.117E+01 0.840E+03   -.289E-01 0.556E-01 -.753E-01   -.636E-02 -.383E-01 0.273E-01
   -.973E-01 0.262E+02 -.804E+03   0.673E-01 -.264E+02 0.804E+03   -.971E-05 0.149E+00 0.159E+00   0.289E-01 0.546E-01 0.198E-01
   0.152E-01 0.158E+00 -.726E+03   -.441E-01 -.240E+00 0.725E+03   -.458E-02 0.381E-01 0.131E+01   0.313E-01 0.468E-01 0.345E-01
   0.247E+00 -.265E+02 -.786E+03   -.284E+00 0.265E+02 0.785E+03   -.598E-02 0.213E-01 0.103E+01   0.364E-01 -.608E-01 0.283E-01
   -.122E+00 0.520E+00 -.831E+03   0.863E-01 -.306E+00 0.831E+03   0.326E-02 -.174E+00 0.176E+00   0.349E-01 -.445E-01 0.221E-01
   -.209E+02 0.194E+02 -.837E+03   0.207E+02 -.193E+02 0.837E+03   0.170E+00 -.141E+00 -.196E+00   0.836E-02 0.536E-01 0.326E-01
   -.274E+02 0.109E+01 -.808E+03   0.274E+02 -.112E+01 0.808E+03   -.726E-01 -.285E-01 0.966E-01   -.267E-02 0.509E-01 0.487E-01
   -.194E+02 -.193E+02 -.834E+03   0.194E+02 0.192E+02 0.834E+03   0.616E-02 0.131E+00 -.513E-01   0.304E-02 -.567E-01 0.388E-01
   -.109E+02 -.125E+01 -.838E+03   0.109E+02 0.124E+01 0.838E+03   0.206E-01 0.535E-01 -.684E-01   0.389E-02 -.457E-01 0.337E-01
   0.188E+00 0.101E+02 -.835E+03   -.160E+00 -.102E+02 0.835E+03   -.357E-02 -.825E-02 0.464E-01   -.270E-01 0.552E-01 0.441E-01
   0.370E-01 0.809E+00 -.827E+03   -.186E-02 -.856E+00 0.827E+03   0.108E-03 0.349E-02 0.554E-01   -.347E-01 0.424E-01 0.562E-01
   0.260E-01 -.960E+01 -.833E+03   0.113E-01 0.967E+01 0.834E+03   -.202E-02 -.720E-02 0.479E-01   -.364E-01 -.578E-01 0.509E-01
   0.231E-02 -.145E+01 -.839E+03   0.304E-01 0.147E+01 0.839E+03   -.748E-03 0.209E-01 0.170E-01   -.319E-01 -.401E-01 0.387E-01
   0.158E+02 0.131E+02 -.258E+04   -.158E+02 -.131E+02 0.258E+04   -.220E-01 0.142E-01 0.326E+01   -.261E-01 0.113E-01 0.489E-01
   0.391E+02 0.193E+02 -.257E+04   -.390E+02 -.194E+02 0.257E+04   -.852E-01 0.190E-01 0.330E+01   -.254E-01 0.624E-01 0.218E-01
   0.378E+02 -.177E+02 -.257E+04   -.377E+02 0.177E+02 0.257E+04   -.598E-01 -.822E-03 0.333E+01   -.275E-01 -.130E-01 0.226E-02
   0.172E+02 -.147E+02 -.258E+04   -.171E+02 0.148E+02 0.258E+04   -.880E-01 -.445E-01 0.330E+01   -.281E-01 -.603E-01 0.281E-01
   0.197E+02 0.367E+02 -.257E+04   -.197E+02 -.366E+02 0.257E+04   0.657E-01 -.121E+00 0.339E+01   0.121E-01 0.997E-02 0.477E-01
   0.139E+03 0.134E+03 -.247E+04   -.140E+03 -.135E+03 0.246E+04   0.279E+00 0.163E+00 0.261E+01   0.173E-01 0.680E-01 0.264E-01
   0.141E+03 -.114E+03 -.248E+04   -.141E+03 0.114E+03 0.248E+04   0.605E+00 -.284E+00 0.273E+01   0.250E-01 -.209E-01 0.514E-02
   0.471E+02 -.611E+02 -.257E+04   -.462E+02 0.603E+02 0.257E+04   -.949E+00 0.836E+00 0.228E+01   0.153E-01 -.617E-01 0.169E-01
   -.199E+02 0.366E+02 -.257E+04   0.200E+02 -.365E+02 0.257E+04   -.672E-01 -.119E+00 0.338E+01   0.257E-01 0.486E-02 0.357E-01
   -.140E+03 0.134E+03 -.247E+04   0.140E+03 -.134E+03 0.247E+04   -.287E+00 0.155E+00 0.262E+01   0.158E-01 0.727E-01 0.136E-01
   -.140E+03 -.112E+03 -.248E+04   0.141E+03 0.112E+03 0.248E+04   -.642E+00 -.319E+00 0.276E+01   0.225E-01 -.960E-02 -.101E-01
   -.472E+02 -.612E+02 -.257E+04   0.462E+02 0.604E+02 0.257E+04   0.945E+00 0.838E+00 0.228E+01   0.316E-01 -.618E-01 0.267E-02
   -.156E+02 0.129E+02 -.258E+04   0.156E+02 -.129E+02 0.258E+04   0.243E-01 0.168E-01 0.326E+01   -.129E-01 0.874E-02 0.338E-01
   -.386E+02 0.193E+02 -.257E+04   0.385E+02 -.194E+02 0.257E+04   0.869E-01 0.168E-01 0.330E+01   -.877E-02 0.639E-01 -.101E-02
   -.375E+02 -.176E+02 -.257E+04   0.375E+02 0.176E+02 0.257E+04   0.635E-01 0.587E-03 0.333E+01   -.173E-01 -.104E-01 -.148E-01
   -.169E+02 -.146E+02 -.258E+04   0.169E+02 0.148E+02 0.258E+04   0.845E-01 -.482E-01 0.330E+01   -.149E-01 -.632E-01 0.542E-02
   -.886E+00 -.358E+01 -.137E+04   0.973E+00 0.453E+01 0.134E+04   -.924E-01 -.977E+00 0.259E+02   0.850E-02 0.189E-01 0.115E-01
   0.150E+00 0.669E+01 -.210E+04   -.203E+00 -.706E+01 0.216E+04   0.457E-01 0.362E+00 -.558E+02   0.781E-02 0.222E-02 -.263E-01
   -.668E-02 0.152E+01 -.299E+03   0.513E-02 -.237E+01 0.300E+03   0.200E-03 0.853E+00 -.621E+00   0.320E-02 -.589E-02 -.107E-03
   0.592E-01 -.139E+01 0.309E+02   0.657E-12 0.204E-13 -.119E-10   -.840E-01 0.139E+01 -.327E+02   0.276E-01 -.143E-02 0.185E+01

 POSITION                                       TOTAL-FORCE (eV/Angst)
      1.37275      1.37275     12.08797        -0.005095     -0.007943      0.003639
      1.37275      4.11824     12.08797        -0.010787     -0.005525      0.004567
      1.37275      6.86373     12.08797        -0.005659      0.010391      0.001940
      1.37275      9.60922     12.08797        -0.014451     -0.001598      0.003493
      4.11824      1.37275     12.08797        -0.001217     -0.023686      0.017436
      4.11824      4.11824     12.08797         0.000183      0.000018      0.002061
      4.11824      6.86373     12.08797         0.000403      0.012366      0.007881
      4.11824      9.60922     12.08797         0.000087     -0.001209      0.023573
      6.86373      1.37275     12.08797         0.005435     -0.006746      0.002760
      6.86373      4.11824     12.08797         0.010168     -0.004906      0.004688
      6.86373      6.86373     12.08797         0.007256      0.010233      0.001672
      6.86373      9.60922     12.08797         0.015975     -0.000230      0.003634
      9.60922      1.37275     12.08797         0.001143      0.010058     -0.010223
      9.60922      4.11824     12.08797         0.000877     -0.010628      0.020285
      9.60922      6.86373     12.08797         0.002540      0.024926      0.014581
      9.60922      9.60922     12.08797         0.002488     -0.016982     -0.034506
     10.98125      0.00072     14.03955         0.005852      0.001906     -0.002495
      0.00069      2.74226     14.04467         0.005412     -0.003379     -0.001272
      0.00102      5.49232     14.04097        -0.001796     -0.000254     -0.008682
      0.00227      8.23770     14.04519         0.003229     -0.000416     -0.003954
      2.74098     10.98018     14.04318        -0.004520      0.009555     -0.006833
      2.74264      2.74219     14.04100        -0.007320     -0.007851     -0.003461
      2.74192      5.49129     14.03953         0.001278      0.005634     -0.003491
      2.74354      8.23597     14.04385        -0.004937     -0.006172      0.004155
      5.49547     10.98104     14.04268         0.006685      0.005563     -0.007146
      5.49343      2.74234     14.04084         0.009257     -0.003474     -0.004377
      5.49482      5.49176     14.03949         0.000335      0.002952     -0.010634
      5.49371      8.23632     14.04348         0.007493     -0.002034     -0.000757
      8.23850      0.00107     14.03914        -0.008657      0.003283      0.000420
      8.23596      2.74240     14.04449        -0.006248     -0.003399      0.002724
      8.23652      5.49211     14.04067         0.002918      0.002031     -0.009827
      8.23640      8.23782     14.04426        -0.006008     -0.000362      0.001654
      1.38728      1.38451     16.01124        -0.005458     -0.000004     -0.008512
      1.37072      4.11974     15.99313         0.003139      0.002018      0.007846
      1.38239      6.84760     16.00906         0.006432      0.005782     -0.003063
      1.37736      9.60550     15.99777        -0.000775     -0.005095      0.000341
      4.11832      1.36502     15.98915        -0.001012      0.003403     -0.004879
      4.11865      4.11169     15.95226        -0.002075      0.005955      0.008357
      4.12015      6.86272     15.97565        -0.007193      0.006137     -0.003654
      4.11921      9.61081     15.99372         0.001953     -0.006618      0.005703
      6.84878      1.38566     16.01052         0.008450      0.002622     -0.010410
      6.86553      4.12173     15.99245        -0.000654     -0.004379      0.007537
      6.85663      6.84883     16.00647        -0.003718      0.011032      0.005313
      6.86128      9.60680     15.99553        -0.005541     -0.006790      0.004911
      9.61007      1.37102     15.98940        -0.002836      0.002008      0.000073
      9.60963      4.11866     15.98690         0.000494     -0.002230      0.002884
      9.61094      6.86327     15.98931        -0.001260     -0.000645     -0.001711
      9.61074      9.60915     15.98870        -0.000092      0.003436      0.000314
     10.98021     10.98120     17.94624         0.002149     -0.003784     -0.012345
     10.97768      2.74562     17.94943        -0.000270      0.001871     -0.005655
     10.97710      5.48834     17.95219         0.002486     -0.002734     -0.003315
     10.97847      8.23665     17.94625         0.006116      0.002213     -0.004915
      2.74363     10.98054     17.95258        -0.000082     -0.005075     -0.001084
      2.74989      2.74982     18.00674         0.000597      0.014576      0.000224
      2.75988      5.47501     18.01632        -0.003668     -0.004619      0.002180
      2.73819      8.22882     17.97516        -0.008013      0.005311      0.002512
      5.49460      0.00195     17.95244        -0.000875     -0.009635     -0.003279
      5.48577      2.75469     18.00743        -0.002205      0.010155     -0.002597
      5.48097      5.47990     18.01587        -0.001243     -0.008708      0.000691
      5.50261      8.23247     17.97567         0.007019      0.004340     -0.002649
      8.23876     10.98136     17.94385        -0.000290     -0.001722     -0.007741
      8.23954      2.74605     17.94613         0.001793      0.002911      0.001603
      8.24335      5.48902     17.95102        -0.002980     -0.001190     -0.002214
      8.24305      8.23729     17.94318        -0.008376      0.000748      0.000647
      4.11271      4.03283     19.06510         0.003141     -0.007405     -0.004463
      4.11145      4.02121     20.28602         0.000677     -0.005318      0.000008
      4.12146      7.20145     18.46639         0.001850     -0.000689      0.017838
    total drift:                                0.002690      0.000469      0.026508

  FREE ENERGIE OF THE ION-ELECTRON SYSTEM (eV)
  free  energy   TOTEN  =      -354.79168364 eV

  energy  without entropy=     -354.68309886  energy(sigma->0) =     -354.75548872

 d Force = 0.1398438E-03[ 0.333E-04, 0.246E-03]  d Energy = 0.1354497E-03 0.439E-05
 d Force = 0.1062232E+02[ 0.106E+02, 0.106E+02]  d Ewald  = 0.1062232E+02-0.143E-05

 reached required accuracy - stopping structural energy minimisation

 total charge

[...]

 magnetization (x)

# of ion       s       p       d       tot
    1       -0.001  -0.004   0.226   0.222
    2       -0.001  -0.004   0.229   0.224
    3       -0.001  -0.004   0.228   0.223
    4       -0.001  -0.003   0.227   0.222
    5       -0.001  -0.004   0.225   0.220
    6       -0.000  -0.004   0.232   0.228
    7       -0.001  -0.004   0.230   0.225
    8       -0.000  -0.004   0.214   0.210
    9       -0.001  -0.004   0.226   0.222
   10       -0.001  -0.004   0.229   0.225
   11       -0.001  -0.004   0.228   0.224
   12       -0.001  -0.003   0.227   0.222
   13       -0.001  -0.003   0.233   0.228
   14       -0.001  -0.004   0.218   0.213
   15       -0.001  -0.003   0.229   0.224
   16        0.003  -0.004   0.239   0.238
   17       -0.002  -0.006   0.321   0.313
   18       -0.002  -0.006   0.325   0.316
   19       -0.002  -0.007   0.324   0.316
   20       -0.002  -0.006   0.318   0.310
   21       -0.002  -0.006   0.319   0.311
   22       -0.002  -0.006   0.326   0.318
   23       -0.002  -0.006   0.327   0.318
   24       -0.002  -0.006   0.325   0.317
   25       -0.002  -0.006   0.319   0.311
   26       -0.002  -0.006   0.326   0.318
   27       -0.002  -0.006   0.327   0.319
   28       -0.002  -0.006   0.325   0.317
   29       -0.002  -0.006   0.321   0.313
   30       -0.002  -0.006   0.325   0.316
   31       -0.002  -0.007   0.325   0.316
   32       -0.002  -0.006   0.319   0.311
   33       -0.002  -0.006   0.283   0.275
   34       -0.002  -0.006   0.310   0.303
   35       -0.002  -0.006   0.283   0.275
   36       -0.002  -0.006   0.299   0.291
   37       -0.002  -0.006   0.314   0.306
   38       -0.001  -0.005   0.274   0.268
   39       -0.002  -0.005   0.296   0.289
   40       -0.002  -0.006   0.302   0.293
   41       -0.002  -0.006   0.284   0.275
   42       -0.002  -0.006   0.311   0.303
   43       -0.002  -0.006   0.284   0.276
   44       -0.002  -0.006   0.299   0.291
   45       -0.002  -0.006   0.320   0.312
   46       -0.002  -0.006   0.318   0.309
   47       -0.002  -0.006   0.321   0.313
   48       -0.001  -0.006   0.322   0.314
   49       -0.001  -0.003   0.227   0.223
   50       -0.000  -0.004   0.210   0.206
   51       -0.000  -0.003   0.216   0.212
   52       -0.001  -0.003   0.214   0.209
   53       -0.000  -0.004   0.213   0.209
   54       -0.003  -0.004   0.100   0.093
   55       -0.002  -0.003   0.102   0.096
   56       -0.001  -0.004   0.137   0.132
   57       -0.000  -0.004   0.213   0.209
   58       -0.003  -0.004   0.100   0.094
   59       -0.002  -0.003   0.103   0.098
   60       -0.001  -0.004   0.137   0.132
   61       -0.001  -0.003   0.227   0.223
   62       -0.000  -0.004   0.211   0.207
   63       -0.000  -0.004   0.216   0.212
   64       -0.001  -0.003   0.214   0.210
   65        0.001  -0.008   0.000  -0.007
   66       -0.000  -0.016   0.000  -0.017
   67       -0.002  -0.000   0.000  -0.002
tot         -0.085  -0.338  16.468  16.045