 vasp.5.4.4.18Apr17-6-g9f103f2a35 (build May 01 2020 14:57:12) complex

 executed on             LinuxIFC date 2021.11.11  14:03:34

 INCAR:
 POTCAR:    PAW_PBE Cu 22Jun2005
 POTCAR:    PAW_PBE N 08Apr2002
 POTCAR:    PAW_PBE O 08Apr2002

 POTCAR:    PAW_PBE Cu 22Jun2005
   VRHFIN =Cu: d10 p1

   TITEL  = PAW_PBE Cu 22Jun2005
   POMASS =   63.546; ZVAL   =   11.000    mass and valenz
   ENMAX  =  295.446; ENMIN  =  221.585 eV

 POTCAR:    PAW_PBE N 08Apr2002
   VRHFIN =N: s2p3

   TITEL  = PAW_PBE N 08Apr2002
   POMASS =   14.001; ZVAL   =    5.000    mass and valenz
   ENMAX  =  400.000; ENMIN  =  300.000 eV

 POTCAR:    PAW_PBE O 08Apr2002
   VRHFIN =O: s2p4

   TITEL  = PAW_PBE O 08Apr2002
   POMASS =   16.000; ZVAL   =    6.000    mass and valenz
   ENMAX  =  400.000; ENMIN  =  300.000 eV

 Optimization of the real space projectors (new method)

 maximal supplied QI-value         = 16.25
 optimisation between [QCUT,QGAM] = [ 10.24, 20.48] = [ 29.35,117.42] Ry
 Optimized for a Real-space Cutoff    1.55 Angstroem

   l    n(q)    QCUT    max X(q) W(low)/X(q) W(high)/X(q)  e(spline)
   2      9    10.239     4.610    0.85E-04    0.29E-03    0.14E-06
   2      9    10.239     8.522    0.15E-03    0.50E-03    0.27E-06
   0     10    10.239    51.609    0.45E-04    0.99E-04    0.10E-06
   0     10    10.239    27.747    0.40E-04    0.93E-04    0.97E-07
   1      9    10.239    20.408    0.15E-03    0.78E-05    0.15E-06
   1      9    10.239    13.425    0.13E-03    0.71E-05    0.14E-06
 Optimization of the real space projectors (new method)

[...]

   l    n(q)    QCUT    max X(q) W(low)/X(q) W(high)/X(q)  e(spline)
   0     10    10.053    79.467    0.61E-04    0.98E-04    0.61E-06
   0     10    10.053    66.151    0.60E-04    0.98E-04    0.61E-06
   1     10    10.053     8.350    0.17E-03    0.71E-03    0.45E-05
   1     10    10.053     5.531    0.18E-03    0.77E-03    0.49E-05
 Optimization of the real space projectors (new method)

 maximal supplied QI-value         = 24.76
 optimisation between [QCUT,QGAM] = [ 10.15, 20.30] = [ 28.85,115.39] Ry
 Optimized for a Real-space Cutoff    1.51 Angstroem

   l    n(q)    QCUT    max X(q) W(low)/X(q) W(high)/X(q)  e(spline)
   0      9    10.150    20.381    0.17E-03    0.18E-03    0.41E-06
   0      9    10.150    15.268    0.18E-03    0.20E-03    0.43E-06
   1      9    10.150     5.964    0.16E-03    0.20E-03    0.36E-06
   1      9    10.150     5.382    0.13E-03    0.16E-03    0.33E-06
  PAW_PBE Cu 22Jun2005                  :
  PAW_PBE N 08Apr2002                   :
  PAW_PBE O 08Apr2002                   :

 POSCAR: Cu N O
  positions in direct lattice
  velocities in cartesian coordinates
 exchange correlation table for  LEXCH =        8
   RHO(1)=    0.500       N(1)  =     2000
   RHO(2)=  100.500       N(2)  =     4000

 ion  position               nearest neighbor table
   1  0.125  0.125  0.410-  22 2.50  18 2.52  21 2.52  17 2.52   2 2.52   5 2.52   4 2.52  13 2.52

   2  0.125  0.375  0.410-  22 2.51  23 2.51  19 2.52  18 2.52   3 2.52   6 2.52   1 2.52  14 2.52

[...]

  17  0.000  0.000  0.470-  21 2.52   1 2.52   4 2.52  18 2.52  13 2.52  16 2.52  20 2.52  29 2.52
                            36 2.54  45 2.55  48 2.55  33 2.57
  18  0.000  0.250  0.470-  22 2.51   1 2.52   2 2.52  13 2.52  17 2.52  14 2.52  19 2.52  30 2.52
                            46 2.54  45 2.55  33 2.56  34 2.56
  19  0.000  0.500  0.470-  23 2.51   3 2.52   2 2.52  20 2.52  15 2.52  14 2.52  18 2.52  31 2.52
                            46 2.54  47 2.55  35 2.56  34 2.56
  20  0.000  0.750  0.470-  24 2.52   3 2.52   4 2.52  19 2.52  15 2.52  16 2.52  17 2.52  32 2.52
                            36 2.55  47 2.55  48 2.55  35 2.57
  21  0.250  0.000  0.470-  22 2.51  17 2.52   1 2.52   4 2.52   5 2.52   8 2.52  25 2.52  24 2.52
                            40 2.54  36 2.55  33 2.56  37 2.56
  22  0.249  0.249  0.469-  38 2.50   1 2.50   5 2.51   2 2.51  21 2.51  18 2.51   6 2.52  26 2.54
                            23 2.54  33 2.55  37 2.55  34 2.55
  23  0.249  0.501  0.469-  38 2.50   3 2.50   7 2.51   2 2.51  19 2.51  24 2.51   6 2.52  27 2.54
                            22 2.54  35 2.55  39 2.55  34 2.56
  24  0.250  0.750  0.470-  23 2.51  20 2.52   3 2.52   4 2.52   7 2.52   8 2.52  28 2.52  21 2.52
                            40 2.54  36 2.55  35 2.56  39 2.56
  25  0.500  0.000  0.470-  26 2.51   5 2.52   9 2.52   8 2.52  29 2.52  12 2.52  21 2.52  28 2.52
                            40 2.54  44 2.54  41 2.56  37 2.56
  26  0.501  0.249  0.469-  38 2.50   9 2.50  10 2.51   5 2.51  30 2.51  25 2.51   6 2.52  22 2.54
                            27 2.54  41 2.55  42 2.55  37 2.55
  27  0.501  0.501  0.469-  38 2.50  11 2.50  10 2.51   7 2.51  31 2.51  28 2.51   6 2.52  23 2.54
                            26 2.54  43 2.55  42 2.55  39 2.55
  28  0.500  0.750  0.470-  27 2.51   7 2.52  11 2.52   8 2.52  32 2.52  12 2.52  24 2.52  25 2.52
                            40 2.54  44 2.54  43 2.56  39 2.56
  29  0.750  0.000  0.470-   9 2.52  12 2.52  25 2.52  30 2.52  13 2.52  16 2.52  32 2.52  17 2.52
                            44 2.54  45 2.55  48 2.55  41 2.56
  30  0.750  0.250  0.470-  26 2.51   9 2.52  10 2.52  13 2.52  14 2.52  29 2.52  31 2.52  18 2.52
                            46 2.55  45 2.55  41 2.56  42 2.56
  31  0.750  0.500  0.470-  27 2.51  10 2.52  11 2.52  14 2.52  15 2.52  32 2.52  30 2.52  19 2.52
                            46 2.55  47 2.55  43 2.56  42 2.56
  32  0.750  0.750  0.470-  11 2.52  12 2.52  28 2.52  31 2.52  15 2.52  16 2.52  29 2.52  20 2.52
                            44 2.55  47 2.55  48 2.55  43 2.56
  33  0.126  0.126  0.531-  50 2.51  53 2.51  34 2.51  37 2.51  49 2.52  45 2.53  54 2.53  36 2.53
                            22 2.55  21 2.56  18 2.56  17 2.57
  34  0.127  0.375  0.531-  38 2.51  33 2.51  35 2.51  51 2.52  50 2.52  46 2.54  54 2.54  55 2.54
                            22 2.55  23 2.56  19 2.56  18 2.56
  35  0.126  0.624  0.531-  51 2.51  56 2.51  39 2.51  34 2.51  52 2.52  55 2.53  47 2.53  36 2.53
                            23 2.55  24 2.56  19 2.56  20 2.57
  36  0.125  0.875  0.530-  56 2.52  53 2.52  49 2.52  52 2.52  40 2.52  48 2.52  33 2.53  35 2.53
                            17 2.54  20 2.55  21 2.55  24 2.55
  37  0.375  0.127  0.531-  38 2.51  33 2.51  41 2.51  57 2.52  53 2.52  40 2.54  54 2.54  58 2.54
                            22 2.55  26 2.55  25 2.56  21 2.56
  38  0.375  0.375  0.527-  27 2.50  23 2.50  26 2.50  22 2.50  34 2.51  37 2.51  39 2.51  42 2.51
                            55 2.63  54 2.63  58 2.63  59 2.63
  39  0.375  0.623  0.531-  38 2.51  35 2.51  43 2.51  60 2.52  56 2.52  40 2.54  55 2.54  59 2.54
                            23 2.55  27 2.55  28 2.56  24 2.56
  40  0.375  0.875  0.530-  57 2.52  60 2.52  56 2.52  53 2.52  36 2.52  44 2.52  37 2.54  39 2.54
                            21 2.54  24 2.54  25 2.54  28 2.54
  41  0.624  0.126  0.531-  62 2.51  57 2.51  42 2.51  37 2.51  61 2.52  58 2.53  44 2.53  45 2.53
                            26 2.55  30 2.56  25 2.56  29 2.56
  42  0.623  0.375  0.531-  38 2.51  41 2.51  43 2.51  63 2.52  62 2.52  46 2.54  59 2.54  58 2.54
                            27 2.55  26 2.55  31 2.56  30 2.56
  43  0.624  0.624  0.531-  63 2.51  60 2.51  42 2.51  39 2.51  64 2.52  59 2.53  47 2.53  44 2.53
                            27 2.55  31 2.56  28 2.56  32 2.56
  44  0.625  0.875  0.530-  60 2.52  57 2.52  61 2.52  64 2.52  40 2.52  48 2.52  41 2.53  43 2.53
                            28 2.54  25 2.54  29 2.54  32 2.55
  45  0.875  0.125  0.530-  62 2.51  49 2.52  61 2.52  50 2.52  46 2.52  48 2.52  41 2.53  33 2.53
                            30 2.55  17 2.55  18 2.55  29 2.55
  46  0.875  0.375  0.530-  63 2.52  62 2.52  50 2.52  51 2.52  45 2.52  47 2.52  34 2.54  42 2.54
                            18 2.54  19 2.54  30 2.55  31 2.55
  47  0.875  0.625  0.530-  63 2.51  52 2.52  64 2.52  51 2.52  46 2.52  48 2.52  43 2.53  35 2.53
                            19 2.55  31 2.55  20 2.55  32 2.55
  48  0.875  0.875  0.531-  64 2.52  49 2.52  61 2.52  52 2.52  36 2.52  45 2.52  47 2.52  44 2.52
                            32 2.55  29 2.55  20 2.55  17 2.55
  49  1.000  0.000  0.590-  48 2.52  33 2.52  45 2.52  36 2.52  53 2.52  61 2.52  52 2.52  50 2.53

[...]

  54  0.250  0.250  0.592-  65 2.12  50 2.52  53 2.52  55 2.53  33 2.53  58 2.53  34 2.54  37 2.54
                            38 2.63
  55  0.250  0.500  0.592-  65 2.11  51 2.52  56 2.52  54 2.53  35 2.53  59 2.53  34 2.54  39 2.54
                            38 2.63
  56  0.250  0.750  0.590-  35 2.51  60 2.52  36 2.52  40 2.52  55 2.52  53 2.52  39 2.52  52 2.52

[...]

  58  0.501  0.249  0.591-  65 2.10  62 2.52  57 2.52  41 2.53  54 2.53  59 2.54  42 2.54  37 2.54
                            38 2.63
  59  0.501  0.501  0.591-  65 2.10  63 2.52  60 2.52  43 2.53  55 2.53  58 2.54  42 2.54  39 2.54
                            38 2.63
  60  0.500  0.750  0.590-  43 2.51  56 2.52  44 2.52  40 2.52  59 2.52  57 2.52  39 2.52  64 2.52

[...]

  65  0.377  0.375  0.629-  66 1.24  59 2.10  58 2.10  55 2.11  54 2.12
  66  0.379  0.375  0.670-  65 1.24

  LATTYP: Found a simple tetragonal cell.
 ALAT       =    10.0912000000
 C/A-ratio  =     2.9728872681

  Lattice vectors:

 A1 = (  10.0912000000,   0.0000000000,   0.0000000000)
 A2 = (   0.0000000000,  10.0912000000,   0.0000000000)
 A3 = (   0.0000000000,   0.0000000000,  30.0000000000)

Analysis of symmetry for initial positions (statically):
 Subroutine PRICEL returns:
 Original cell was already a primitive cell.

 Routine SETGRP: Setting up the symmetry group for a
 simple tetragonal supercell.

 Subroutine GETGRP returns: Found  1 space group operations
 (whereof  1 operations were pure point group operations)
 out of a pool of 16 trial point group operations.

The static configuration has the point symmetry C_1 .

Analysis of symmetry for dynamics (positions and initial velocities):
 Subroutine PRICEL returns:
 Original cell was already a primitive cell.

[...]

The dynamic configuration has the point symmetry C_1 .

Analysis of constrained symmetry for selective dynamics:
 Subroutine PRICEL returns:
 Original cell was already a primitive cell.

[...]

The constrained configuration has the point symmetry C_1 .

Analysis of structural, dynamic, and magnetic symmetry:
 Subroutine PRICEL returns:
 Original cell was already a primitive cell.

 Routine SETGRP: Setting up the symmetry group for a
 simple tetragonal supercell.

 Subroutine GETGRP returns: Found  1 space group operations
 (whereof  1 operations were pure point group operations)
 out of a pool of 16 trial point group operations.

The magnetic configuration has the point symmetry C_1 .

 Subroutine INISYM returns: Found  1 space group operations
 (whereof  1 operations are pure point group operations),
 and found     1 'primitive' translations

 KPOINTS: K-Point Grid

Automatic generation of k-mesh.
Space group operators:
 irot       det(A)        alpha          n_x          n_y          n_z        tau_x        tau_y        tau_z
[...]
   -.632E+01 0.635E+01 0.392E+04   0.640E+01 -.644E+01 -.391E+04   -.718E-01 0.706E-01 -.351E+01   0.352E-03 -.184E-03 -.124E-01
   -.808E+01 0.136E-01 0.392E+04   0.805E+01 -.133E-01 -.392E+04   0.321E-01 -.668E-04 -.332E+01   0.709E-03 -.581E-05 -.128E-01
   -.633E+01 -.636E+01 0.392E+04   0.641E+01 0.644E+01 -.391E+04   -.713E-01 -.709E-01 -.351E+01   0.322E-03 0.191E-03 -.125E-01
   -.333E+01 -.295E-01 0.391E+04   0.318E+01 0.291E-01 -.391E+04   0.162E+00 0.808E-03 -.343E+01   0.258E-03 -.172E-05 -.122E-01
   -.260E+00 0.340E+01 0.391E+04   0.257E+00 -.324E+01 -.391E+04   0.472E-02 -.164E+00 -.344E+01   0.528E-03 0.281E-03 -.109E-01
   -.284E+00 0.291E-01 0.391E+04   0.281E+00 -.292E-01 -.391E+04   0.551E-02 -.114E-04 -.345E+01   0.122E-02 -.910E-05 -.107E-01
   -.269E+00 -.338E+01 0.391E+04   0.266E+00 0.322E+01 -.391E+04   0.505E-02 0.163E+00 -.344E+01   0.538E-03 -.290E-03 -.110E-01
   -.226E+00 -.235E-01 0.391E+04   0.222E+00 0.231E-01 -.391E+04   0.447E-02 0.524E-03 -.354E+01   -.711E-04 0.299E-04 -.122E-01
   0.368E+01 0.420E+01 0.136E+04   -.369E+01 -.422E+01 -.136E+04   0.159E-01 0.115E-02 -.395E+00   -.436E-02 0.969E-02 -.271E-01
   0.752E+01 0.552E+01 0.137E+04   -.761E+01 -.544E+01 -.137E+04   0.793E-01 -.907E-01 -.468E+00   0.134E-02 0.858E-02 -.154E-01
   0.754E+01 -.548E+01 0.137E+04   -.762E+01 0.540E+01 -.137E+04   0.794E-01 0.906E-01 -.467E+00   0.922E-03 -.832E-02 -.153E-01
   0.369E+01 -.425E+01 0.136E+04   -.369E+01 0.426E+01 -.136E+04   0.165E-01 -.226E-02 -.396E+00   -.473E-02 -.868E-02 -.272E-01
   0.556E+01 0.788E+01 0.137E+04   -.548E+01 -.796E+01 -.137E+04   -.896E-01 0.741E-01 -.450E+00   0.725E-02 0.543E-02 -.297E-01
   0.121E+02 0.122E+02 0.140E+04   -.121E+02 -.123E+02 -.140E+04   0.475E-01 0.328E-01 -.330E+00   -.982E-02 0.327E-02 -.294E-01
   0.121E+02 -.122E+02 0.140E+04   -.121E+02 0.122E+02 -.140E+04   0.480E-01 -.327E-01 -.329E+00   -.103E-01 -.275E-02 -.298E-01
   0.559E+01 -.795E+01 0.137E+04   -.551E+01 0.803E+01 -.137E+04   -.900E-01 -.730E-01 -.449E+00   0.736E-02 -.570E-02 -.296E-01
   -.533E+01 0.786E+01 0.137E+04   0.525E+01 -.794E+01 -.137E+04   0.877E-01 0.767E-01 -.446E+00   -.441E-02 0.421E-03 -.301E-01
   -.120E+02 0.121E+02 0.141E+04   0.120E+02 -.122E+02 -.141E+04   -.265E-01 0.371E-01 -.318E+00   -.917E-02 -.144E-02 -.335E-01
   -.120E+02 -.121E+02 0.141E+04   0.121E+02 0.121E+02 -.141E+04   -.266E-01 -.370E-01 -.317E+00   -.938E-02 0.149E-02 -.333E-01
   -.536E+01 -.792E+01 0.137E+04   0.528E+01 0.800E+01 -.137E+04   0.885E-01 -.758E-01 -.446E+00   -.492E-02 -.864E-03 -.299E-01
   -.395E+01 0.415E+01 0.136E+04   0.396E+01 -.416E+01 -.136E+04   -.172E-01 0.712E-02 -.393E+00   0.600E-02 0.151E-02 -.309E-01
   -.764E+01 0.544E+01 0.137E+04   0.772E+01 -.536E+01 -.137E+04   -.922E-01 -.839E-01 -.447E+00   0.146E-01 0.103E-02 -.301E-01
   -.764E+01 -.541E+01 0.137E+04   0.772E+01 0.533E+01 -.137E+04   -.911E-01 0.838E-01 -.447E+00   0.139E-01 -.960E-03 -.303E-01
   -.394E+01 -.418E+01 0.136E+04   0.395E+01 0.418E+01 -.136E+04   -.170E-01 -.728E-02 -.393E+00   0.595E-02 -.118E-02 -.311E-01
   0.228E+02 0.229E+02 -.125E+04   -.224E+02 -.225E+02 0.125E+04   -.322E+00 -.319E+00 0.717E-01   -.811E-02 -.970E-02 -.508E-01
   0.338E+02 0.104E+00 -.122E+04   -.337E+02 -.105E+00 0.122E+04   -.745E-01 -.170E-03 0.430E+00   -.486E-02 0.857E-03 -.874E-01
   0.228E+02 -.230E+02 -.125E+04   -.225E+02 0.226E+02 0.125E+04   -.322E+00 0.320E+00 0.690E-01   -.927E-02 0.987E-02 -.494E-01
   0.131E+02 -.214E-01 -.125E+04   -.133E+02 0.216E-01 0.125E+04   0.141E+00 -.800E-03 0.501E+00   -.228E-03 0.502E-03 -.277E-01
   0.703E+00 0.340E+02 -.122E+04   -.704E+00 -.340E+02 0.122E+04   -.617E-03 -.717E-01 0.395E+00   0.183E-02 -.647E-02 -.475E-01
   0.720E+00 0.814E-01 -.107E+04   -.729E+00 -.828E-01 0.107E+04   0.131E-02 0.163E-02 0.113E+01   0.566E-02 -.107E-03 -.529E-01
   0.727E+00 -.341E+02 -.122E+04   -.728E+00 0.340E+02 0.122E+04   -.420E-03 0.714E-01 0.396E+00   0.129E-02 0.576E-02 -.469E-01
   0.451E+00 -.440E-01 -.123E+04   -.453E+00 0.440E-01 0.123E+04   -.765E-02 0.219E-03 0.274E+00   0.831E-02 -.237E-03 -.340E-01
   -.233E+02 0.232E+02 -.125E+04   0.230E+02 -.229E+02 0.125E+04   0.331E+00 -.326E+00 0.459E-01   0.641E-02 -.115E-01 -.367E-01
   -.343E+02 0.114E+00 -.122E+04   0.342E+02 -.115E+00 0.122E+04   0.757E-01 0.586E-04 0.389E+00   0.178E-02 0.280E-03 -.383E-01
   -.234E+02 -.233E+02 -.125E+04   0.231E+02 0.230E+02 0.125E+04   0.333E+00 0.326E+00 0.443E-01   0.457E-02 0.108E-01 -.357E-01
   -.134E+02 -.138E-01 -.124E+04   0.135E+02 0.140E-01 0.124E+04   -.143E+00 -.190E-03 0.495E+00   -.108E-03 -.111E-03 -.205E-01
   -.192E+00 0.133E+02 -.124E+04   0.192E+00 -.134E+02 0.124E+04   -.118E-01 0.142E+00 0.518E+00   0.888E-02 -.406E-03 -.393E-01
   -.404E+00 0.693E-01 -.123E+04   0.403E+00 -.693E-01 0.123E+04   -.315E-02 -.750E-03 0.300E+00   0.245E-02 0.877E-03 -.533E-01
   -.156E+00 -.134E+02 -.124E+04   0.155E+00 0.135E+02 0.124E+04   -.111E-01 -.143E+00 0.518E+00   0.805E-02 0.101E-02 -.388E-01
   -.176E+00 0.228E-02 -.126E+04   0.178E+00 -.252E-02 0.126E+04   -.187E-02 -.372E-03 0.132E+00   0.187E-03 0.663E-03 -.304E-01
   0.184E+02 0.185E+02 -.382E+04   -.185E+02 -.185E+02 0.381E+04   0.595E-01 0.610E-01 0.355E+01   0.179E-03 -.640E-03 -.269E-01
   0.461E+02 0.216E+02 -.380E+04   -.461E+02 -.217E+02 0.379E+04   0.197E-01 0.162E+00 0.344E+01   -.186E-01 -.126E-01 -.205E-01
   0.462E+02 -.215E+02 -.380E+04   -.462E+02 0.216E+02 0.379E+04   0.206E-01 -.164E+00 0.344E+01   -.190E-01 0.142E-01 -.209E-01
   0.185E+02 -.185E+02 -.382E+04   -.185E+02 0.186E+02 0.381E+04   0.606E-01 -.626E-01 0.355E+01   -.584E-03 0.160E-02 -.268E-01
   0.221E+02 0.466E+02 -.379E+04   -.223E+02 -.466E+02 0.379E+04   0.147E+00 0.139E-01 0.344E+01   -.848E-04 -.147E-01 -.262E-01
   0.131E+03 0.129E+03 -.370E+04   -.132E+03 -.131E+03 0.369E+04   0.174E+01 0.173E+01 0.365E+01   -.116E-01 -.271E-01 -.315E-01
   0.131E+03 -.129E+03 -.369E+04   -.133E+03 0.131E+03 0.369E+04   0.175E+01 -.173E+01 0.364E+01   -.132E-01 0.274E-01 -.310E-01
   0.221E+02 -.467E+02 -.379E+04   -.223E+02 0.468E+02 0.379E+04   0.149E+00 -.132E-01 0.344E+01   -.109E-02 0.139E-01 -.257E-01
   -.215E+02 0.471E+02 -.379E+04   0.217E+02 -.471E+02 0.379E+04   -.158E+00 0.189E-01 0.344E+01   0.935E-02 -.155E-01 -.274E-01
   -.129E+03 0.131E+03 -.369E+04   0.131E+03 -.133E+03 0.368E+04   -.170E+01 0.174E+01 0.362E+01   0.133E-01 -.148E-01 -.403E-01
   -.129E+03 -.131E+03 -.369E+04   0.131E+03 0.133E+03 0.368E+04   -.170E+01 -.173E+01 0.362E+01   0.122E-01 0.138E-01 -.394E-01
   -.216E+02 -.472E+02 -.379E+04   0.217E+02 0.472E+02 0.379E+04   -.158E+00 -.186E-01 0.344E+01   0.839E-02 0.142E-01 -.274E-01
   -.189E+02 0.187E+02 -.382E+04   0.190E+02 -.187E+02 0.381E+04   -.653E-01 0.735E-01 0.354E+01   0.257E-03 -.846E-02 -.245E-01
   -.475E+02 0.220E+02 -.379E+04   0.475E+02 -.222E+02 0.379E+04   -.148E-01 0.151E+00 0.343E+01   0.986E-02 -.327E-02 -.188E-01
   -.476E+02 -.220E+02 -.379E+04   0.476E+02 0.221E+02 0.379E+04   -.141E-01 -.152E+00 0.343E+01   0.868E-02 0.395E-02 -.185E-01
   -.190E+02 -.187E+02 -.382E+04   0.190E+02 0.188E+02 0.381E+04   -.645E-01 -.743E-01 0.354E+01   -.478E-03 0.883E-02 -.246E-01
   0.346E+01 0.391E+00 -.194E+04   -.388E+01 -.438E+00 0.191E+04   0.413E+00 0.457E-01 0.239E+02   0.197E-02 0.740E-03 -.138E-01
   -.278E+01 -.306E+00 -.270E+04   0.336E+01 0.371E+00 0.276E+04   -.613E+00 -.687E-01 -.533E+02   0.154E-01 0.162E-02 0.164E-01
   0.703E-01 0.678E-02 0.306E+02   0.627E-12 -.211E-12 -.132E-10   -.116E+00 -.136E-01 -.289E+02   0.420E-01 0.686E-02 -.176E+01

 POSITION                                       TOTAL-FORCE (eV/Angst)
      1.26140      1.26140     12.31431        -0.013445     -0.013436     -0.029896
      1.26140      3.78419     12.31431        -0.002468      0.000060     -0.010109
      1.26140      6.30699     12.31431        -0.013356      0.013367     -0.030096
      1.26140      8.82979     12.31431        -0.004107      0.000360      0.034401
      3.78419      1.26140     12.31431        -0.000649     -0.003253     -0.010044
      3.78419      3.78419     12.31431         0.000766      0.000386      0.008867
      3.78419      6.30699     12.31431        -0.000212      0.003564     -0.010181
      3.78419      8.82979     12.31431        -0.001214      0.000669      0.011045
      6.30699      1.26140     12.31431         0.014354     -0.013948     -0.030541
      6.30699      3.78419     12.31431         0.005480      0.000185     -0.009693
      6.30699      6.30699     12.31431         0.014593      0.013822     -0.030480
      6.30699      8.82979     12.31431         0.002976      0.000396      0.033447
      8.82979      1.26140     12.31431         0.002338     -0.003417      0.033026
      8.82979      3.78419     12.31431         0.003552     -0.000117      0.010842
      8.82979      6.30699     12.31431         0.002648      0.002783      0.032922
      8.82979      8.82979     12.31431         0.001255      0.000165      0.028612
      0.00063      0.00085     14.09782         0.002434     -0.002829     -0.001622
      0.00188      2.52311     14.09780        -0.000652     -0.003034     -0.006305
      0.00199      5.04500     14.09772        -0.000757      0.003491     -0.006414
      0.00079      7.56736     14.09786         0.002459      0.002976     -0.001448
      2.52263      0.00108     14.09747        -0.001553     -0.002394     -0.000545
      2.51574      2.51565     14.08252         0.002498     -0.002325     -0.005013
      2.51578      5.05311     14.08247         0.002362      0.002351     -0.004757
      2.52283      7.56774     14.09733        -0.002085      0.002518     -0.000390
      5.04473      0.00087     14.09708         0.004010     -0.001272     -0.000246
      5.05365      2.51529     14.08186         0.003401     -0.000255     -0.001194
      5.05374      5.05333     14.08179         0.003039      0.000122     -0.001201
      5.04492      7.56790     14.09710         0.003994      0.001200     -0.000242
      7.56774      0.00076     14.09737        -0.002426     -0.001306      0.000963
      7.56905      2.52294     14.09699        -0.004610     -0.000989     -0.000731
      7.56918      5.04532     14.09701        -0.004403      0.001093     -0.000625
      7.56796      7.56760     14.09726        -0.002743      0.001403      0.001189
      1.27260      1.27237     15.92913         0.003018      0.000798      0.004309
      1.28325      3.78419     15.92045         0.000877      0.000010      0.011209
      1.27303      6.29609     15.92894         0.002768     -0.000105      0.003981
      1.26184      8.82991     15.91376         0.001247     -0.000036     -0.004375
      3.78439      1.28095     15.91956        -0.000253     -0.000391      0.002335
      3.78626      3.78463     15.81878        -0.002088      0.000066      0.002443
      3.78494      6.28853     15.91921        -0.000844      0.000036      0.002469
      3.78299      8.83039     15.90896        -0.000768     -0.000144     -0.001331
      6.29719      1.27157     15.92759         0.002020      0.002395     -0.000878
      6.29085      3.78435     15.91811         0.002760     -0.000120     -0.000627
      6.29776      6.29714     15.92738         0.001847     -0.002449     -0.000944
      6.30476      8.83003     15.91278         0.002255     -0.000106     -0.005952
      8.83109      1.26249     15.91279        -0.002861     -0.000349      0.002493
      8.83316      3.78390     15.90827        -0.001545      0.000162      0.008397
      8.83161      6.30529     15.91271        -0.003473      0.000912      0.002355
      8.82911      8.82955     15.91738         0.000668      0.000094     -0.001502
     10.09118      0.00082     17.69108         0.000587     -0.000508      0.000146
      0.00161      2.52478     17.69063         0.003931      0.005334     -0.005046
      0.00213      5.04280     17.69057         0.003178     -0.004738     -0.004659
      0.00052      7.56678     17.69084         0.000218      0.001202      0.000193
      2.52422     10.09035     17.68986         0.001852      0.001339     -0.001198
      2.52285      2.51929     17.74854        -0.006896      0.000299     -0.006169
      2.52307      5.05086     17.74793        -0.006827     -0.000570     -0.005922
      2.52478      7.57053     17.68975         0.001577     -0.001317     -0.001120
      5.04191     10.08982     17.68847        -0.000592      0.002686      0.001461
      5.05554      2.51758     17.74336         0.002077     -0.003104     -0.000918
      5.05623      5.05240     17.74292         0.001219      0.002338     -0.000544
      5.04249      7.57107     17.68816        -0.001092     -0.003167      0.001709
      7.56597      0.00101     17.69005         0.002977      0.002068      0.000711
      7.57378      2.52527     17.68813        -0.000940      0.000169     -0.001918
      7.57433      5.04277     17.68789        -0.001369      0.000061     -0.001856
      7.56645      7.56695     17.69015         0.002611     -0.001765      0.000660
      3.80354      3.78664     18.85589        -0.008844     -0.001374     -0.011296
      3.81770      3.78823     20.09735        -0.016773     -0.002062      0.007846
    total drift:                               -0.003934      0.000012     -0.012398

  FREE ENERGIE OF THE ION-ELECTRON SYSTEM (eV)
  free  energy   TOTEN  =      -255.36711844 eV

  energy  without entropy=     -255.39876520  energy(sigma->0) =     -255.37766736

 d Force =-0.1235385E-04[-0.346E-04, 0.991E-05]  d Energy =-0.3454708E-05-0.890E-05
 d Force =-0.2336980E+01[-0.234E+01,-0.234E+01]  d Ewald  =-0.2336980E+01 0.393E-07

 reached required accuracy - stopping structural energy minimisation
 writing wavefunctions

 total charge

[...]

 magnetization (x)

# of ion       s       p       d       tot
    1       -0.000  -0.000   0.000  -0.000
    2       -0.000  -0.000   0.000   0.000
    3       -0.000  -0.000   0.000  -0.000
    4       -0.000  -0.000   0.000   0.000
    5       -0.000  -0.000   0.000   0.000
    6       -0.000  -0.000   0.000   0.000
    7       -0.000  -0.000   0.000   0.000
    8       -0.000  -0.000   0.000  -0.000
    9       -0.000  -0.000   0.000  -0.000
   10       -0.000  -0.000   0.000   0.000
   11       -0.000  -0.000   0.000  -0.000
   12       -0.000  -0.000   0.000   0.000
   13       -0.000  -0.000   0.000   0.000
   14       -0.000  -0.000   0.000  -0.000
   15       -0.000  -0.000   0.000   0.000
   16       -0.000  -0.000   0.000  -0.000
   17       -0.000  -0.000  -0.000  -0.000
   18       -0.000  -0.000  -0.000  -0.000
   19       -0.000   0.000  -0.000  -0.000
   20       -0.000  -0.000   0.000  -0.000
   21       -0.000  -0.000   0.000   0.000
   22        0.000   0.000  -0.000  -0.000
   23       -0.000   0.000   0.000   0.000
   24       -0.000  -0.000   0.000   0.000
   25       -0.000  -0.000   0.000   0.000
   26       -0.000   0.000  -0.000  -0.000
   27       -0.000   0.000  -0.000  -0.000
   28       -0.000  -0.000   0.000   0.000
   29       -0.000  -0.000   0.000  -0.000
   30       -0.000   0.000   0.000   0.000
   31       -0.000  -0.000   0.000  -0.000
   32       -0.000  -0.000   0.000  -0.000
   33       -0.000   0.000  -0.000  -0.000
   34        0.000   0.000   0.000   0.000
   35        0.000   0.000  -0.000  -0.000
   36        0.000  -0.000   0.000   0.000
   37        0.000  -0.000   0.000   0.000
   38        0.000   0.000  -0.000   0.000
   39        0.000   0.000   0.000   0.000
   40        0.000  -0.000  -0.000  -0.000
   41       -0.000   0.000  -0.000  -0.000
   42        0.000   0.000   0.000   0.000
   43       -0.000   0.000  -0.000  -0.000
   44        0.000  -0.000  -0.000  -0.000
   45        0.000   0.000   0.000   0.000
   46        0.000  -0.000  -0.000  -0.000
   47        0.000  -0.000  -0.000  -0.000
   48       -0.000   0.000  -0.000  -0.000
   49        0.000   0.000  -0.000  -0.000
   50        0.000   0.000  -0.000  -0.000
   51        0.000   0.000  -0.000  -0.000
   52        0.000   0.000  -0.000  -0.000
   53        0.000   0.000  -0.000  -0.000
   54        0.000   0.000   0.000   0.000
   55        0.000   0.000   0.000   0.000
   56        0.000   0.000  -0.000  -0.000
   57        0.000   0.000  -0.000  -0.000
   58        0.000   0.000   0.000   0.000
   59        0.000   0.000   0.000   0.000
   60        0.000   0.000  -0.000   0.000
   61        0.000   0.000  -0.000  -0.000
   62        0.000   0.000  -0.000   0.000
   63        0.000   0.000  -0.000   0.000
   64        0.000   0.000  -0.000  -0.000
   65        0.000   0.000   0.000   0.000
   66        0.000   0.000   0.000   0.000
tot         -0.000   0.000   0.000   0.000