 vasp.5.4.4.18Apr17-6-g9f103f2a35 (build May 01 2020 14:57:12) complex

 executed on             LinuxIFC date 2021.09.15  15:38:52

 INCAR:
 POTCAR:    PAW_PBE Pd 04Jan2005
 POTCAR:    PAW_PBE N 08Apr2002
 POTCAR:    PAW_PBE O 08Apr2002

 POTCAR:    PAW_PBE Pd 04Jan2005
   VRHFIN =Pd : s1 d9

   TITEL  = PAW_PBE Pd 04Jan2005
   POMASS =  106.420; ZVAL   =   10.000    mass and valenz
   ENMAX  =  250.925; ENMIN  =  188.194 eV

 POTCAR:    PAW_PBE N 08Apr2002
   VRHFIN =N: s2p3

   TITEL  = PAW_PBE N 08Apr2002
   POMASS =   14.001; ZVAL   =    5.000    mass and valenz
   ENMAX  =  400.000; ENMIN  =  300.000 eV

 POTCAR:    PAW_PBE O 08Apr2002
   VRHFIN =O: s2p4

   TITEL  = PAW_PBE O 08Apr2002
   POMASS =   16.000; ZVAL   =    6.000    mass and valenz
   ENMAX  =  400.000; ENMIN  =  300.000 eV

 Optimization of the real space projectors (new method)

 maximal supplied QI-value         = 14.36
 optimisation between [QCUT,QGAM] = [ 10.20, 20.39] = [ 29.12,116.47] Ry
 Optimized for a Real-space Cutoff    1.55 Angstroem

   l    n(q)    QCUT    max X(q) W(low)/X(q) W(high)/X(q)  e(spline)
   2      9    10.197    59.108    0.12E-03    0.40E-04    0.11E-06
   2      9    10.197    58.101    0.12E-03    0.39E-04    0.12E-06
   0      9    10.197   102.235    0.41E-04    0.86E-05    0.83E-07
   0      9    10.197    58.388    0.37E-04    0.79E-05    0.78E-07
   1      9    10.197    22.191    0.25E-03    0.13E-03    0.84E-07
   1      9    10.197    15.590    0.21E-03    0.11E-03    0.74E-07
 Optimization of the real space projectors (new method)

[...]

   l    n(q)    QCUT    max X(q) W(low)/X(q) W(high)/X(q)  e(spline)
   0     10    10.053    79.467    0.61E-04    0.98E-04    0.61E-06
   0     10    10.053    66.151    0.60E-04    0.98E-04    0.61E-06
   1     10    10.053     8.350    0.17E-03    0.71E-03    0.45E-05
   1     10    10.053     5.531    0.18E-03    0.77E-03    0.49E-05
 Optimization of the real space projectors (new method)

 maximal supplied QI-value         = 24.76
 optimisation between [QCUT,QGAM] = [ 10.15, 20.30] = [ 28.85,115.39] Ry
 Optimized for a Real-space Cutoff    1.51 Angstroem

   l    n(q)    QCUT    max X(q) W(low)/X(q) W(high)/X(q)  e(spline)
   0      9    10.150    20.381    0.17E-03    0.18E-03    0.41E-06
   0      9    10.150    15.268    0.18E-03    0.20E-03    0.43E-06
   1      9    10.150     5.964    0.16E-03    0.20E-03    0.36E-06
   1      9    10.150     5.382    0.13E-03    0.16E-03    0.33E-06
  PAW_PBE Pd 04Jan2005                  :
  PAW_PBE N 08Apr2002                   :
  PAW_PBE O 08Apr2002                   :

 POSCAR: Pd N O
  positions in direct lattice
  velocities in cartesian coordinates
 exchange correlation table for  LEXCH =        8
   RHO(1)=    0.500       N(1)  =     2000
   RHO(2)=  100.500       N(2)  =     4000

 ion  position               nearest neighbor table
   1  0.125  0.125  0.403-   2 2.75   5 2.75   4 2.75  13 2.75  17 2.75  21 2.75  18 2.76  22 2.77

   2  0.125  0.375  0.403-   1 2.75   3 2.75   6 2.75  14 2.75  18 2.75  23 2.75  19 2.76  22 2.76

[...]

  17  0.000  0.002  0.468-  36 2.73  29 2.74  18 2.74  21 2.74  48 2.75   1 2.75  13 2.75  45 2.75
                            20 2.76   4 2.77  16 2.77  33 2.77
  18  0.001  0.251  0.468-  22 2.73  19 2.73  45 2.74  17 2.74  30 2.75   2 2.75  46 2.75  14 2.76
                             1 2.76  33 2.76  13 2.77  34 2.78
  19  0.000  0.500  0.468-  18 2.73  23 2.73  46 2.74  31 2.75  35 2.75  20 2.75   3 2.76   2 2.76
                            47 2.76  15 2.76  14 2.76  34 2.78
  20  0.999  0.750  0.468-  32 2.74  36 2.74  16 2.75  19 2.75  35 2.75  15 2.75  48 2.75  24 2.75
                             4 2.76  47 2.76   3 2.76  17 2.76
  21  0.250  0.001  0.468-  36 2.74  37 2.74  17 2.74  22 2.75   1 2.75   5 2.75  25 2.75  40 2.75
                             4 2.75   8 2.75  24 2.76  33 2.77
  22  0.250  0.251  0.469-  18 2.73  23 2.73  37 2.74  21 2.75  26 2.75  33 2.75  38 2.75   2 2.76
                             6 2.76   1 2.77   5 2.77  34 2.77
  23  0.249  0.499  0.468-  22 2.73  19 2.73  27 2.74  39 2.74  24 2.75   2 2.75   3 2.76  35 2.76
                             6 2.76  38 2.77   7 2.77  34 2.77
  24  0.250  0.749  0.468-  40 2.74  28 2.74  23 2.75   3 2.75   7 2.75  36 2.75  35 2.75  20 2.75
                             4 2.75   8 2.76  21 2.76  39 2.76
  25  0.500  1.000  0.468-  44 2.74  37 2.75  40 2.75  12 2.75  28 2.75  29 2.75  41 2.75  26 2.75
                            21 2.75   9 2.75   8 2.75   5 2.75
  26  0.500  0.250  0.468-  42 2.74  37 2.74  27 2.74  22 2.75  25 2.75  41 2.75   6 2.75   5 2.75
                            10 2.75   9 2.75  30 2.76  38 2.78
  27  0.499  0.500  0.468-  42 2.74  28 2.74  23 2.74  43 2.74  26 2.74   7 2.75   6 2.75  31 2.76
                            11 2.76  10 2.76  39 2.76  38 2.78
  28  0.500  0.749  0.468-  40 2.73  43 2.73  27 2.74  24 2.74  32 2.75   7 2.75  25 2.75  11 2.75
                            44 2.75   8 2.75  12 2.76  39 2.79
  29  0.751  0.000  0.468-  41 2.73  17 2.74  48 2.74  32 2.74  30 2.75  13 2.75  25 2.75  16 2.75
                            44 2.75   9 2.75  12 2.76  45 2.79
  30  0.751  0.250  0.468-  41 2.74  14 2.74  29 2.75  42 2.75  18 2.75  13 2.75  31 2.75  46 2.75
                            10 2.76  26 2.76   9 2.76  45 2.76
  31  0.750  0.501  0.468-  42 2.74  32 2.74  19 2.75  15 2.75  11 2.75  43 2.75  30 2.75  46 2.75
                            14 2.76  27 2.76  10 2.76  47 2.76
  32  0.750  0.751  0.468-  20 2.74  44 2.74  31 2.74  29 2.74  28 2.75  12 2.75  16 2.75  43 2.75
                            11 2.75  15 2.76  48 2.76  47 2.77
  33  0.126  0.126  0.534-  45 2.73  34 2.74  37 2.74  49 2.74  22 2.75  36 2.75  54 2.75  18 2.76
                            21 2.77  17 2.77  53 2.78  50 2.82
  34  0.126  0.376  0.535-  38 2.72  33 2.74  35 2.75  46 2.75  23 2.77  22 2.77  18 2.78  19 2.78
                            50 2.81  55 2.83  51 2.86  54 2.93
  35  0.124  0.626  0.533-  39 2.72  47 2.73  36 2.74  19 2.75  20 2.75  34 2.75  24 2.75  23 2.76
                            56 2.76  52 2.78  51 2.79  55 2.80
  36  0.125  0.876  0.532-  17 2.73  53 2.74  21 2.74  48 2.74  20 2.74  35 2.74  24 2.75  40 2.75
                            33 2.75  52 2.75  56 2.76  49 2.77
  37  0.375  0.125  0.533-  54 2.65  33 2.74  22 2.74  21 2.74  26 2.74  25 2.75  38 2.75  40 2.76
                            41 2.76  57 2.76  58 2.78  53 2.79
  38  0.374  0.375  0.534-  34 2.72  39 2.72  59 2.74  37 2.75  22 2.75  42 2.76  58 2.76  23 2.77
                            27 2.78  26 2.78  54 2.80  55 2.84
  39  0.372  0.623  0.534-  35 2.72  38 2.72  55 2.74  23 2.74  59 2.75  40 2.75  56 2.76  60 2.76
                            43 2.76  24 2.76  27 2.76  28 2.79
  40  0.375  0.874  0.532-  28 2.73  53 2.74  24 2.74  44 2.75  25 2.75  21 2.75  36 2.75  60 2.75
                            39 2.75  37 2.76  56 2.76  57 2.76
  41  0.627  0.125  0.532-  29 2.73  58 2.73  30 2.74  44 2.74  25 2.75  26 2.75  42 2.75  61 2.75
                            45 2.76  37 2.76  62 2.76  57 2.76
  42  0.625  0.375  0.532-  27 2.74  26 2.74  58 2.74  31 2.74  63 2.74  30 2.75  43 2.75  41 2.75
                            46 2.75  38 2.76  62 2.76  59 2.77
  43  0.624  0.626  0.533-  28 2.73  63 2.73  44 2.74  27 2.74  42 2.75  31 2.75  32 2.75  60 2.75
                            39 2.76  59 2.76  47 2.77  64 2.77
  44  0.625  0.875  0.533-  57 2.73  32 2.74  64 2.74  43 2.74  25 2.74  41 2.74  48 2.74  40 2.75
                            29 2.75  28 2.75  60 2.77  61 2.77
  45  0.878  0.128  0.534-  46 2.72  33 2.73  18 2.74  49 2.74  62 2.74  17 2.75  41 2.76  48 2.76
                            61 2.76  30 2.76  50 2.79  29 2.79
  46  0.875  0.376  0.533-  45 2.72  47 2.74  19 2.74  62 2.74  18 2.75  42 2.75  34 2.75  31 2.75
                            30 2.75  63 2.77  51 2.80  50 2.84
  47  0.875  0.625  0.534-  51 2.68  35 2.73  46 2.74  63 2.76  20 2.76  48 2.76  64 2.76  19 2.76
                            31 2.76  52 2.76  43 2.77  32 2.77
  48  0.875  0.877  0.533-  52 2.74  29 2.74  36 2.74  44 2.74  17 2.75  61 2.75  20 2.75  45 2.76
                            32 2.76  47 2.76  64 2.76  49 2.77
  49  0.001  0.002  0.598-  52 2.71  50 2.72  33 2.74  45 2.74  53 2.75  61 2.75  48 2.77  36 2.77

  50  0.999  0.249  0.602-  66 2.05  49 2.72  62 2.74  45 2.79  34 2.81  33 2.82  46 2.84  51 2.87
                            54 2.91
  51  0.992  0.510  0.600-  66 1.98  47 2.68  52 2.69  63 2.71  35 2.79  46 2.80  55 2.85  34 2.86
                            50 2.87
  52  0.999  0.755  0.598-  51 2.69  49 2.71  56 2.74  48 2.74  36 2.75  64 2.76  47 2.76  35 2.78

[...]

  54  0.263  0.233  0.600-  67 2.09  53 2.64  37 2.65  58 2.66  33 2.75  38 2.80  50 2.91  34 2.93
                            55 3.03
  55  0.251  0.508  0.602-  65 2.10  56 2.68  59 2.74  39 2.74  35 2.80  34 2.83  38 2.84  51 2.85
                            54 3.03
  56  0.249  0.752  0.598-  53 2.64  55 2.68  52 2.74  60 2.75  39 2.76  36 2.76  35 2.76  40 2.76

[...]

  65  0.167  0.405  0.652-  66 1.28  67 1.33  55 2.10
  66  0.055  0.388  0.643-  65 1.28  51 1.98  50 2.05
  67  0.236  0.310  0.663-  65 1.33  54 2.09

  LATTYP: Found a simple tetragonal cell.
 ALAT       =    10.9820000000
 C/A-ratio  =     2.7317428519

  Lattice vectors:

 A1 = (  10.9820000000,   0.0000000000,   0.0000000000)
 A2 = (   0.0000000000,  10.9820000000,   0.0000000000)
 A3 = (   0.0000000000,   0.0000000000,  30.0000000000)

Analysis of symmetry for initial positions (statically):
 Subroutine PRICEL returns:
 Original cell was already a primitive cell.

 Routine SETGRP: Setting up the symmetry group for a
 simple tetragonal supercell.

 Subroutine GETGRP returns: Found  1 space group operations
 (whereof  1 operations were pure point group operations)
 out of a pool of 16 trial point group operations.

The static configuration has the point symmetry C_1 .

Analysis of symmetry for dynamics (positions and initial velocities):
 Subroutine PRICEL returns:
 Original cell was already a primitive cell.

[...]

The dynamic configuration has the point symmetry C_1 .

Analysis of constrained symmetry for selective dynamics:
 Subroutine PRICEL returns:
 Original cell was already a primitive cell.

[...]

The constrained configuration has the point symmetry C_1 .

Analysis of structural, dynamic, and magnetic symmetry:
 Subroutine PRICEL returns:
 Original cell was already a primitive cell.

 Routine SETGRP: Setting up the symmetry group for a
 simple tetragonal supercell.

 Subroutine GETGRP returns: Found  1 space group operations
 (whereof  1 operations were pure point group operations)
 out of a pool of 16 trial point group operations.

The magnetic configuration has the point symmetry C_1 .

 Subroutine INISYM returns: Found  1 space group operations
 (whereof  1 operations are pure point group operations),
 and found     1 'primitive' translations

 KPOINTS: K-Point Grid

Automatic generation of k-mesh.
Space group operators:
[...]
   0.769E+00 -.729E+00 0.268E+04   -.798E+00 0.730E+00 -.268E+04   0.209E-01 0.160E-01 -.325E+01   0.153E-01 -.670E-03 -.863E-02
   0.441E+00 -.318E+00 0.268E+04   -.468E+00 0.316E+00 -.268E+04   0.732E-02 -.571E-02 -.330E+01   0.186E-01 0.949E-02 -.621E-02
   -.656E+00 -.547E+00 0.268E+04   0.625E+00 0.527E+00 -.267E+04   0.244E-01 0.380E-01 -.329E+01   0.192E-01 0.118E-02 -.302E-04
   0.465E+01 0.385E+01 0.958E+03   -.469E+01 -.379E+01 -.958E+03   0.134E-01 -.448E-01 -.727E-01   0.203E-01 -.599E-02 0.653E-03
   0.466E+01 0.447E+01 0.963E+03   -.467E+01 -.445E+01 -.963E+03   -.372E-02 -.846E-02 -.888E-01   0.182E-01 -.122E-01 0.262E-02
   0.490E+01 -.381E+01 0.964E+03   -.493E+01 0.381E+01 -.964E+03   0.189E-01 -.909E-02 -.806E-01   0.197E-01 0.527E-02 -.274E-02
   0.439E+01 -.405E+01 0.963E+03   -.443E+01 0.403E+01 -.963E+03   0.177E-01 0.905E-02 -.441E-01   0.205E-01 0.104E-01 -.578E-02
   -.326E+00 0.412E+01 0.968E+03   0.355E+00 -.412E+01 -.968E+03   -.248E-01 0.127E-01 0.188E-01   -.477E-02 -.869E-02 0.184E-02
   -.181E+01 0.217E+01 0.966E+03   0.182E+01 -.215E+01 -.966E+03   -.917E-02 -.100E-01 -.102E+00   -.424E-02 -.138E-01 -.547E-03
   -.349E+01 -.321E+01 0.966E+03   0.349E+01 0.319E+01 -.966E+03   0.698E-02 0.108E-01 -.100E+00   -.632E-02 0.579E-02 0.591E-02
   -.186E+01 -.315E+01 0.968E+03   0.189E+01 0.314E+01 -.968E+03   -.304E-01 -.552E-02 0.126E-01   -.418E-02 0.826E-02 0.316E-02
   -.402E+01 0.247E+01 0.962E+03   0.406E+01 -.248E+01 -.962E+03   -.218E-01 0.160E-01 -.716E-01   -.177E-01 -.671E-02 0.118E-01
   -.483E+01 0.770E+00 0.966E+03   0.488E+01 -.786E+00 -.967E+03   -.366E-01 0.270E-01 0.379E-01   -.182E-01 -.113E-01 0.106E-01
   -.408E+01 -.291E+01 0.961E+03   0.413E+01 0.293E+01 -.961E+03   -.299E-01 -.337E-01 0.892E-02   -.184E-01 0.441E-02 0.123E-01
   -.248E+01 -.841E-01 0.958E+03   0.254E+01 0.874E-01 -.958E+03   -.388E-01 -.175E-01 -.341E-01   -.191E-01 0.109E-01 0.150E-01
   -.871E+00 0.118E+01 0.957E+03   0.802E+00 -.124E+01 -.957E+03   0.687E-01 0.624E-01 0.817E-02   0.617E-02 -.581E-02 0.715E-02
   0.205E+01 0.287E+01 0.965E+03   -.205E+01 -.289E+01 -.965E+03   0.871E-02 0.272E-01 0.141E-01   0.303E-02 -.132E-01 0.857E-02
   0.292E+01 -.336E+01 0.961E+03   -.292E+01 0.339E+01 -.961E+03   -.185E-02 -.323E-01 -.842E-02   0.545E-02 0.245E-02 0.451E-02
   -.197E+00 -.490E+00 0.955E+03   0.101E+00 0.536E+00 -.956E+03   0.902E-01 -.558E-01 0.184E-01   0.442E-02 0.946E-02 0.383E-02
   0.114E+02 0.230E+02 -.797E+03   -.114E+02 -.228E+02 0.797E+03   0.913E-02 -.129E+00 0.550E-01   0.116E-01 -.429E-02 0.610E-02
   0.359E+01 0.968E+00 -.785E+03   -.349E+01 -.106E+01 0.784E+03   -.114E+00 0.926E-01 0.104E+01   0.109E-01 -.740E-02 0.124E-01
   0.265E+01 -.222E+02 -.780E+03   -.266E+01 0.223E+02 0.780E+03   -.260E-02 -.614E-01 0.309E+00   0.107E-01 0.464E-02 0.523E-02
   0.577E+01 0.319E+00 -.783E+03   -.579E+01 -.348E+00 0.783E+03   0.432E-02 0.298E-01 0.316E-01   0.116E-01 -.324E-03 -.165E-02
   -.257E+02 0.251E+02 -.770E+03   0.253E+02 -.248E+02 0.770E+03   0.380E+00 -.334E+00 -.168E+00   -.102E-01 -.117E-01 0.405E-02
   -.229E+02 -.498E+01 -.799E+03   0.229E+02 0.506E+01 0.799E+03   0.887E-02 -.858E-01 0.222E+00   -.133E-01 -.796E-02 0.166E-01
   -.243E+02 -.226E+02 -.810E+03   0.240E+02 0.222E+02 0.811E+03   0.361E+00 0.352E+00 -.335E+00   -.797E-02 0.123E-01 0.160E-01
   -.139E+02 0.335E+01 -.793E+03   0.139E+02 -.336E+01 0.793E+03   -.587E-02 0.128E-01 0.721E-01   -.233E-02 -.452E-02 0.454E-02
   -.669E+01 0.129E+02 -.797E+03   0.672E+01 -.128E+02 0.797E+03   -.958E-02 0.549E-02 0.832E-01   -.794E-02 -.122E-01 0.142E-01
   -.382E+01 -.177E+01 -.782E+03   0.386E+01 0.177E+01 0.782E+03   -.229E-01 -.273E-02 -.126E-01   -.100E-01 -.744E-02 0.208E-01
   -.350E+01 -.129E+02 -.806E+03   0.351E+01 0.129E+02 0.806E+03   0.499E-02 0.334E-02 0.879E-01   -.161E-01 0.176E-01 0.191E-01
   -.427E+01 0.167E+01 -.815E+03   0.427E+01 -.167E+01 0.815E+03   0.707E-02 -.500E-02 0.629E-01   -.119E-01 -.563E-03 0.134E-01
   0.201E+02 0.196E+02 -.817E+03   -.198E+02 -.194E+02 0.818E+03   -.289E+00 -.182E+00 -.238E+00   0.105E-01 -.791E-02 0.174E-01
   0.213E+02 0.238E+01 -.785E+03   -.214E+02 -.241E+01 0.785E+03   0.118E+00 0.334E-01 0.394E+00   0.128E-01 -.795E-02 0.154E-01
   0.263E+02 -.238E+02 -.809E+03   -.259E+02 0.235E+02 0.809E+03   -.405E+00 0.280E+00 -.419E+00   0.688E-02 0.109E-01 0.138E-01
   0.130E+02 -.399E+00 -.815E+03   -.129E+02 0.395E+00 0.815E+03   -.266E-01 0.227E-02 0.222E-01   0.323E-02 0.510E-02 0.490E-02
   0.328E+02 0.457E+02 -.256E+04   -.328E+02 -.456E+02 0.255E+04   0.740E-01 -.126E+00 0.328E+01   0.352E-02 -.148E-02 0.345E-02
   0.127E+03 0.152E+03 -.245E+04   -.127E+03 -.151E+03 0.245E+04   -.341E+00 -.467E+00 0.128E+01   0.821E-02 -.666E-02 0.145E-01
   0.127E+03 -.146E+03 -.242E+04   -.126E+03 0.146E+03 0.242E+04   -.538E+00 0.795E+00 0.225E+00   0.505E-02 -.360E-02 0.132E-01
   0.277E+02 -.473E+02 -.256E+04   -.278E+02 0.472E+02 0.256E+04   0.949E-01 0.609E-01 0.330E+01   0.505E-02 0.342E-02 0.395E-02
   -.143E+02 0.571E+02 -.254E+04   0.143E+02 -.573E+02 0.254E+04   -.373E-02 0.177E+00 0.315E+01   0.254E-02 -.512E-02 0.750E-04
   -.727E+02 0.117E+03 -.236E+04   0.735E+02 -.118E+03 0.236E+04   -.799E+00 0.109E+01 0.156E+01   -.318E-02 -.180E-02 0.106E-01
   -.114E+03 -.143E+03 -.242E+04   0.114E+03 0.143E+03 0.242E+04   -.748E-01 -.574E+00 0.182E+01   -.155E-02 -.290E-02 0.188E-02
   -.202E+02 -.407E+02 -.255E+04   0.202E+02 0.409E+02 0.255E+04   -.305E-01 -.259E+00 0.318E+01   0.110E-01 -.177E-02 -.469E-02
   -.291E+02 0.249E+02 -.256E+04   0.293E+02 -.251E+02 0.256E+04   -.140E+00 0.160E+00 0.326E+01   -.546E-02 -.114E-01 -.125E-03
   -.718E+02 0.215E+02 -.253E+04   0.720E+02 -.216E+02 0.253E+04   -.168E+00 0.791E-01 0.329E+01   -.104E-01 -.808E-02 0.112E-01
   -.564E+02 -.311E+02 -.255E+04   0.566E+02 0.312E+02 0.254E+04   -.113E+00 -.113E+00 0.336E+01   -.115E-01 0.824E-02 0.818E-02
   -.240E+02 -.170E+02 -.257E+04   0.241E+02 0.170E+02 0.257E+04   -.580E-01 -.813E-01 0.326E+01   -.295E-02 0.601E-02 -.541E-02
   0.128E+02 0.175E+02 -.258E+04   -.128E+02 -.176E+02 0.257E+04   0.311E-01 0.457E-01 0.330E+01   -.624E-02 -.103E-01 0.286E-02
   0.334E+02 0.249E+02 -.255E+04   -.337E+02 -.249E+02 0.255E+04   0.317E+00 0.305E-01 0.332E+01   -.153E-02 -.893E-02 0.151E-01
   0.415E+02 -.237E+02 -.255E+04   -.417E+02 0.238E+02 0.255E+04   0.235E+00 -.655E-01 0.330E+01   -.831E-02 0.548E-02 0.158E-01
   0.152E+02 -.165E+02 -.258E+04   -.152E+02 0.166E+02 0.257E+04   0.503E-01 -.953E-01 0.330E+01   -.105E-01 0.572E-02 0.687E-02
   -.407E+02 -.169E+03 -.160E+04   0.515E+02 0.193E+03 0.160E+04   -.108E+02 -.245E+02 -.505E+01   -.260E-03 -.850E-03 -.185E-02
   0.209E+03 0.157E+01 -.157E+04   -.236E+03 -.761E+01 0.157E+04   0.263E+02 0.604E+01 -.406E+01   0.557E-02 -.225E-02 0.962E-03
   -.171E+03 0.162E+03 -.200E+04   0.196E+03 -.190E+03 0.203E+04   -.254E+02 0.288E+02 -.231E+02   0.325E-02 -.227E-02 -.236E-02
   0.114E+02 -.110E+02 0.393E+02   0.227E-12 -.853E-13 -.180E-10   -.113E+02 0.111E+02 -.397E+02   -.140E-01 -.813E-01 0.353E+00

 POSITION                                       TOTAL-FORCE (eV/Angst)
      1.37275      1.37275     12.08797         0.003941      0.022618      0.011231
      1.37275      4.11824     12.08797         0.012713      0.001833     -0.013871
      1.37275      6.86373     12.08797        -0.013215     -0.005070      0.027821
      1.37275      9.60922     12.08797        -0.005385      0.013961      0.019499
      4.11824      1.37275     12.08797        -0.017831      0.018036      0.024176
      4.11824      4.11824     12.08797        -0.012732     -0.003190      0.012046
      4.11824      6.86373     12.08797        -0.017761     -0.027130     -0.000357
      4.11824      9.60922     12.08797         0.012161     -0.019581     -0.011663
      6.86373      1.37275     12.08797         0.019347      0.008849     -0.010240
      6.86373      4.11824     12.08797         0.015078      0.014119      0.021143
      6.86373      6.86373     12.08797        -0.011352     -0.015662      0.001300
      6.86373      9.60922     12.08797        -0.002643      0.022728     -0.104437
      9.60922      1.37275     12.08797         0.030057      0.021804      0.008719
      9.60922      4.11824     12.08797         0.005101      0.015340      0.025607
      9.60922      6.86373     12.08797        -0.001983      0.001930      0.012239
      9.60922      9.60922     12.08797         0.011964      0.017905     -0.009487
      0.00157      0.01893     14.04593        -0.001250      0.003010      0.001719
      0.01295      2.75954     14.05079        -0.000412     -0.001180      0.002593
      0.00304      5.49101     14.05064         0.001892     -0.002744     -0.003011
     10.97198      8.23956     14.04137         0.002086     -0.000741     -0.003879
      2.74468      0.00471     14.03816        -0.001135      0.001069     -0.000898
      2.74382      2.75165     14.05251        -0.003270     -0.003404      0.004612
      2.73736      5.48288     14.04974        -0.003090     -0.002552     -0.003587
      2.74407      8.22767     14.03673        -0.002537     -0.003478     -0.002097
      5.49464     10.97838     14.03743         0.001457     -0.000066     -0.003725
      5.48853      2.74662     14.03881         0.003405     -0.000731     -0.000110
      5.47820      5.49048     14.04331        -0.000253     -0.001326     -0.002568
      5.48723      8.23013     14.03773         0.001187     -0.001103     -0.001967
      8.24393      0.00383     14.03680         0.003476      0.000232     -0.000895
      8.24815      2.74831     14.03735         0.001763      0.000271      0.002105
      8.23911      5.50121     14.04254         0.000107     -0.002595     -0.002387
      8.23343      8.24201     14.03799        -0.000971     -0.000794     -0.002533
      1.38587      1.38918     16.01786         0.002594     -0.001336     -0.001046
      1.38218      4.12501     16.04560        -0.000802     -0.004716     -0.001460
      1.36178      6.87479     15.99288        -0.002114     -0.001964      0.003982
      1.36798      9.61799     15.96820         0.001164     -0.000504      0.002463
      4.12388      1.36754     15.97875        -0.003244      0.000322      0.000853
      4.10488      4.11459     16.02425        -0.000710     -0.009791      0.001733
      4.08548      6.83840     16.01381         0.000756      0.001351     -0.000720
      4.11967      9.59251     15.96866         0.000983     -0.001337      0.002136
      6.88306      1.37203     15.97040        -0.001450      0.001360      0.002083
      6.86136      4.12332     15.96670        -0.000923     -0.006064      0.003581
      6.84666      6.87033     15.97881         0.001888      0.000020      0.001471
      6.86589      9.61109     15.97809        -0.002080     -0.001632     -0.003789
      9.63989      1.40351     16.01125         0.001762      0.001750      0.000142
      9.61304      4.12851     15.99370        -0.000745     -0.005207      0.000769
      9.61409      6.86883     16.01030        -0.003990     -0.001358      0.000623
      9.60850      9.62793     15.98679         0.001047      0.000121     -0.002469
      0.01111      0.02186     17.95224         0.000006     -0.001730     -0.000475
     10.97493      2.74074     18.05884        -0.003195     -0.006782      0.001178
     10.88816      5.60262     18.00457        -0.002091     -0.001027      0.003072
     10.97343      8.29183     17.95085         0.000729     -0.003621     -0.001968
      2.75573     10.90639     17.94409        -0.000536     -0.004276     -0.000139
      2.89364      2.55575     18.00401        -0.001286     -0.002875      0.005080
      2.75557      5.58087     18.04513        -0.006017     -0.005035      0.001643
      2.73052      8.26216     17.95033        -0.000687     -0.002905     -0.002982
      5.50506     10.96796     17.92692        -0.001459     -0.002116     -0.002944
      5.55022      2.73604     17.93191         0.000836     -0.003191     -0.000800
      5.48866      5.48729     17.94702        -0.000235     -0.001431     -0.001011
      5.48272      8.23780     17.94038         0.003011      0.000533     -0.006977
      8.24021      0.01209     17.94229        -0.002719     -0.003756     -0.002906
      8.23530      2.76374     17.93620        -0.002862     -0.001149      0.000349
      8.18595      5.50315     17.93413        -0.005609      0.000682     -0.001158
      8.21829      8.25934     17.94169        -0.001288     -0.003758     -0.003212
      1.83415      4.44576     19.56181         0.008436      0.001606      0.003100
      0.59881      4.26226     19.28464        -0.010263      0.003298      0.001200
      2.59007      3.40647     19.89203         0.001182     -0.005837      0.001500
    total drift:                                0.003309      0.003904      0.003326

  FREE ENERGIE OF THE ION-ELECTRON SYSTEM (eV)
  free  energy   TOTEN  =      -358.17779691 eV

  energy  without entropy=     -358.01573390  energy(sigma->0) =     -358.12377591

 d Force = 0.2913423E-04[ 0.235E-04, 0.348E-04]  d Energy = 0.2957669E-04-0.442E-06
 d Force =-0.3226834E+00[-0.323E+00,-0.323E+00]  d Ewald  =-0.3226834E+00-0.797E-08

 Conjugate gradient step on ions:
 trial-energy change:   -0.000030  1 .order   -0.000029   -0.000035   -0.000024
  (g-gl).g = 0.992E-04      g.g   = 0.934E-04  gl.gl    = 0.332E-03
 g(Force)  = 0.934E-04   g(Stress)= 0.000E+00 ortho     =-0.808E-05
 gamma     =   0.29912
 trial     =   0.38213
 opt step  =   1.18049  (harmonic =   1.18049) maximal distance =0.00056302
 next E    =  -358.177821   (d E  =  -0.00005)

 reached required accuracy - stopping structural energy minimisation

 total charge

[...]

 magnetization (x)

# of ion       s       p       d       tot
    1       -0.001  -0.003   0.190   0.186
    2        0.000  -0.003   0.194   0.191
    3       -0.001  -0.003   0.188   0.185
    4       -0.001  -0.003   0.181   0.177
    5       -0.001  -0.003   0.188   0.184
    6       -0.000  -0.003   0.189   0.185
    7       -0.001  -0.003   0.194   0.191
    8       -0.000  -0.003   0.197   0.194
    9       -0.000  -0.003   0.195   0.191
   10       -0.001  -0.003   0.181   0.177
   11       -0.001  -0.003   0.194   0.191
   12        0.001  -0.003   0.195   0.193
   13       -0.001  -0.003   0.191   0.188
   14       -0.001  -0.003   0.188   0.184
   15       -0.000  -0.003   0.187   0.184
   16       -0.000  -0.003   0.194   0.191
   17       -0.002  -0.005   0.270   0.264
   18       -0.001  -0.005   0.267   0.261
   19       -0.001  -0.005   0.263   0.257
   20       -0.002  -0.005   0.270   0.263
   21       -0.001  -0.005   0.271   0.264
   22       -0.001  -0.005   0.261   0.254
   23       -0.001  -0.005   0.280   0.273
   24       -0.002  -0.005   0.275   0.268
   25       -0.002  -0.005   0.263   0.256
   26       -0.001  -0.005   0.271   0.264
   27       -0.002  -0.005   0.272   0.265
   28       -0.001  -0.005   0.280   0.273
   29       -0.001  -0.005   0.276   0.269
   30       -0.002  -0.005   0.267   0.260
   31       -0.001  -0.005   0.266   0.259
   32       -0.002  -0.005   0.265   0.258
   33       -0.001  -0.005   0.233   0.227
   34       -0.001  -0.004   0.236   0.231
   35       -0.001  -0.004   0.248   0.243
   36       -0.002  -0.005   0.266   0.260
   37       -0.001  -0.005   0.212   0.205
   38       -0.001  -0.005   0.245   0.240
   39       -0.001  -0.005   0.225   0.219
   40       -0.001  -0.005   0.271   0.264
   41       -0.002  -0.005   0.274   0.267
   42       -0.002  -0.005   0.257   0.250
   43       -0.002  -0.005   0.269   0.263
   44       -0.001  -0.005   0.277   0.271
   45       -0.002  -0.005   0.229   0.222
   46       -0.001  -0.004   0.241   0.236
   47       -0.002  -0.005   0.202   0.195
   48       -0.002  -0.005   0.266   0.260
   49       -0.000  -0.003   0.160   0.157
   50       -0.002  -0.003   0.066   0.060
   51       -0.002  -0.004   0.047   0.041
   52       -0.001  -0.003   0.152   0.149
   53       -0.000  -0.003   0.158   0.155
   54       -0.001  -0.003   0.090   0.087
   55       -0.002  -0.003   0.076   0.072
   56       -0.000  -0.003   0.162   0.159
   57       -0.001  -0.003   0.162   0.159
   58       -0.001  -0.002   0.162   0.159
   59       -0.000  -0.003   0.166   0.163
   60       -0.001  -0.003   0.170   0.167
   61       -0.001  -0.003   0.174   0.171
   62       -0.000  -0.003   0.166   0.164
   63       -0.001  -0.003   0.164   0.161
   64       -0.000  -0.003   0.174   0.171
   65       -0.000  -0.001   0.000  -0.001
   66        0.000  -0.006   0.000  -0.006
   67       -0.000   0.000   0.000   0.000
tot         -0.065  -0.260  13.567  13.242