 vasp.5.4.4.18Apr17-6-g9f103f2a35 (build Jun 11 2020 13:42:08) complex

 executed on             LinuxIFC date 2021.11.08  02:32:46

 INCAR:
 POTCAR:    PAW_PBE Pd 04Jan2005
 POTCAR:    PAW_PBE N 08Apr2002
 POTCAR:    PAW_PBE O 08Apr2002
 POTCAR:    PAW_PBE H 15Jun2001

 POTCAR:    PAW_PBE Pd 04Jan2005
   VRHFIN =Pd : s1 d9

   TITEL  = PAW_PBE Pd 04Jan2005
   POMASS =  106.420; ZVAL   =   10.000    mass and valenz
   ENMAX  =  250.925; ENMIN  =  188.194 eV

 POTCAR:    PAW_PBE N 08Apr2002
   VRHFIN =N: s2p3

   TITEL  = PAW_PBE N 08Apr2002
   POMASS =   14.001; ZVAL   =    5.000    mass and valenz
   ENMAX  =  400.000; ENMIN  =  300.000 eV

 POTCAR:    PAW_PBE O 08Apr2002
   VRHFIN =O: s2p4

   TITEL  = PAW_PBE O 08Apr2002
   POMASS =   16.000; ZVAL   =    6.000    mass and valenz
   ENMAX  =  400.000; ENMIN  =  300.000 eV

 POTCAR:    PAW_PBE H 15Jun2001
   VRHFIN =H: ultrasoft test

   TITEL  = PAW_PBE H 15Jun2001
   POMASS =    1.000; ZVAL   =    1.000    mass and valenz
   ENMAX  =  250.000; ENMIN  =  200.000 eV

 Optimization of the real space projectors (new method)

 maximal supplied QI-value         = 14.36
 optimisation between [QCUT,QGAM] = [ 10.20, 20.39] = [ 29.12,116.47] Ry
 Optimized for a Real-space Cutoff    1.55 Angstroem

   l    n(q)    QCUT    max X(q) W(low)/X(q) W(high)/X(q)  e(spline)
   2      9    10.197    59.108    0.12E-03    0.40E-04    0.11E-06
   2      9    10.197    58.101    0.12E-03    0.39E-04    0.12E-06
   0      9    10.197   102.235    0.41E-04    0.86E-05    0.83E-07
   0      9    10.197    58.388    0.37E-04    0.79E-05    0.78E-07
   1      9    10.197    22.191    0.25E-03    0.13E-03    0.84E-07
   1      9    10.197    15.590    0.21E-03    0.11E-03    0.74E-07
 Optimization of the real space projectors (new method)

[...]

   l    n(q)    QCUT    max X(q) W(low)/X(q) W(high)/X(q)  e(spline)
   0      9    10.150    20.381    0.17E-03    0.18E-03    0.41E-06
   0      9    10.150    15.268    0.18E-03    0.20E-03    0.43E-06
   1      9    10.150     5.964    0.16E-03    0.20E-03    0.36E-06
   1      9    10.150     5.382    0.13E-03    0.16E-03    0.33E-06
 Optimization of the real space projectors (new method)

 maximal supplied QI-value         = 34.20
 optimisation between [QCUT,QGAM] = [  9.92, 20.18] = [ 27.55,114.04] Ry
 Optimized for a Real-space Cutoff    1.34 Angstroem

   l    n(q)    QCUT    max X(q) W(low)/X(q) W(high)/X(q)  e(spline)
   0      8     9.919    19.460    0.16E-03    0.20E-03    0.36E-06
   0      8     9.919    12.209    0.16E-03    0.20E-03    0.35E-06
   1      8     9.919     4.655    0.19E-03    0.46E-03    0.40E-06
  PAW_PBE Pd 04Jan2005                  :
  PAW_PBE N 08Apr2002                   :
  PAW_PBE O 08Apr2002                   :
  PAW_PBE H 15Jun2001                   :

 POSCAR: Pd N O H
  positions in direct lattice
  velocities in cartesian coordinates
 exchange correlation table for  LEXCH =        8
   RHO(1)=    0.500       N(1)  =     2000
   RHO(2)=  100.500       N(2)  =     4000

 VTST: version 3.1, (03/28/14)

 CHAIN: initializing optimizer

 OPT: Using VASP QUASI-newton optimizer
 CHAIN: Read ICHAIN            0
 CHAIN: Running the NEB
 NEB:          SPRING     -5.000000
 NEB:          LCLIMB      T
 NEB:     LTANGENTOLD      F
 NEB:           LDNEB      F
 NEB:        LDNEBORG      F
 NEB:        LNEBCELL      F
 NEB:          EFIRST   -369.231398
 NEB:           ELAST   -369.108740

 POSCAR: Pd N O H
  positions in direct lattice

 POSCAR: Pd N O H
  positions in direct lattice

 ion  position               nearest neighbor table
   1  0.125  0.125  0.403-  22 2.74   4 2.75   2 2.75   5 2.75  13 2.75  21 2.75  18 2.75  17 2.76

   2  0.125  0.375  0.403-   6 2.75   1 2.75  14 2.75   3 2.75  23 2.75  22 2.75  18 2.76  19 2.76

[...]

  17  1.000  1.000  0.468-  21 2.74  18 2.74  29 2.74  20 2.75  36 2.75  45 2.75  16 2.75   4 2.75
                            13 2.76   1 2.76  48 2.76  33 2.78
  18  0.999  0.250  0.468-  22 2.74  30 2.74  17 2.74  34 2.75  13 2.75  19 2.75  45 2.75  14 2.75
                             1 2.75   2 2.76  46 2.76  33 2.77
  19  0.999  0.500  0.468-  31 2.74  23 2.74  20 2.74  34 2.75  18 2.75  47 2.75  15 2.75  14 2.75
                            35 2.76  46 2.76   3 2.76   2 2.76
  20  1.000  0.750  0.468-  24 2.74  19 2.74  32 2.74  17 2.75  15 2.75  36 2.75  48 2.75   3 2.75
                            16 2.75   4 2.75  47 2.77  35 2.78
  21  0.249  1.000  0.468-  37 2.73  17 2.74  22 2.74  24 2.75   4 2.75  40 2.75  36 2.75   1 2.75
                            25 2.75   8 2.76   5 2.76  33 2.77
  22  0.249  0.249  0.468-  38 2.71  18 2.74   1 2.74  21 2.74   2 2.75  37 2.75  23 2.75  33 2.75
                             5 2.75  26 2.76   6 2.76  34 2.77
  23  0.249  0.500  0.468-  38 2.71  19 2.74  24 2.74   3 2.74  39 2.75   2 2.75  35 2.75  22 2.75
                            27 2.76   7 2.76   6 2.76  34 2.77
  24  0.249  0.750  0.468-  39 2.74  20 2.74  23 2.74  21 2.75   3 2.75  36 2.75  40 2.75   4 2.75
                            28 2.76   7 2.76   8 2.76  35 2.78
  25  0.500  1.000  0.468-  26 2.74  29 2.74  28 2.74  37 2.75  12 2.75   8 2.75  40 2.75   9 2.75
                             5 2.75  41 2.75  21 2.75  44 2.76
  26  0.500  0.249  0.468-  38 2.73  25 2.74  30 2.75   5 2.75  42 2.75   9 2.75  27 2.75  41 2.75
                             6 2.75  37 2.76  10 2.76  22 2.76
  27  0.500  0.500  0.468-  38 2.73  31 2.74  28 2.74   7 2.75  43 2.75   6 2.75  26 2.75  11 2.75
                            10 2.75  39 2.75  42 2.75  23 2.76
  28  0.500  0.750  0.468-  27 2.74  32 2.74  25 2.74  44 2.75  39 2.75  40 2.75  11 2.75   7 2.75
                            12 2.75   8 2.75  24 2.76  43 2.77
  29  0.750  0.999  0.468-  17 2.74  25 2.74  30 2.74  32 2.75  45 2.75  48 2.75  16 2.75  12 2.75
                            44 2.76  13 2.76   9 2.76  41 2.77
  30  0.750  0.249  0.468-  18 2.74  42 2.74  29 2.74  26 2.75  45 2.75  31 2.75  46 2.75   9 2.75
                            13 2.75  10 2.76  14 2.76  41 2.76
  31  0.749  0.500  0.468-  32 2.74  19 2.74  27 2.74  42 2.75  47 2.75  30 2.75  10 2.75  46 2.75
                            11 2.75  14 2.76  15 2.76  43 2.76
  32  0.750  0.749  0.468-  31 2.74  28 2.74  20 2.74  48 2.75  29 2.75  44 2.75  47 2.75  11 2.75
                            15 2.75  12 2.76  16 2.76  43 2.78
  33  0.126  0.126  0.534-  34 2.73  37 2.73  53 2.75  50 2.75  22 2.75  45 2.75  49 2.76  36 2.76
                            18 2.77  21 2.77  54 2.78  17 2.78
  34  0.123  0.374  0.533-  33 2.73  35 2.73  46 2.74  18 2.75  38 2.75  19 2.75  50 2.76  23 2.77
                            22 2.77  51 2.77  55 2.80  54 2.81
  35  0.125  0.623  0.534-  34 2.73  39 2.73  56 2.75  52 2.75  23 2.75  19 2.76  47 2.76  51 2.76
                            36 2.76  24 2.78  55 2.78  20 2.78
  36  0.124  0.875  0.533-  48 2.74  40 2.75  24 2.75  17 2.75  20 2.75  21 2.75  56 2.75  49 2.75
                            53 2.76  52 2.76  33 2.76  35 2.76
  37  0.374  0.124  0.533-  33 2.73  21 2.73  40 2.73  41 2.74  25 2.75  22 2.75  38 2.75  26 2.76
                            53 2.76  57 2.77  58 2.77  54 2.82
  38  0.373  0.374  0.531-  22 2.71  23 2.71  26 2.73  27 2.73  34 2.75  37 2.75  39 2.76  42 2.77
                            59 2.79  58 2.81  54 2.83  55 2.83
  39  0.374  0.625  0.533-  35 2.73  24 2.74  40 2.74  43 2.74  23 2.75  28 2.75  27 2.75  56 2.75
                            38 2.76  59 2.76  60 2.77  55 2.82
  40  0.375  0.875  0.533-  37 2.73  39 2.74  44 2.75  36 2.75  24 2.75  21 2.75  28 2.75  25 2.75
                            57 2.76  60 2.76  56 2.76  53 2.76
  41  0.623  0.125  0.533-  62 2.74  42 2.74  37 2.74  57 2.75  26 2.75  25 2.75  44 2.76  58 2.76
                            45 2.76  30 2.76  61 2.76  29 2.77
  42  0.625  0.374  0.533-  46 2.73  43 2.73  41 2.74  30 2.74  31 2.75  26 2.75  27 2.75  62 2.76
                            38 2.77  63 2.77  58 2.79  59 2.79
  43  0.623  0.623  0.534-  42 2.73  39 2.74  64 2.75  47 2.75  27 2.75  59 2.75  60 2.75  44 2.76
                            31 2.76  28 2.77  32 2.78  63 2.78
  44  0.625  0.874  0.533-  48 2.74  40 2.75  28 2.75  32 2.75  61 2.75  41 2.76  29 2.76  43 2.76
                            25 2.76  60 2.76  57 2.76  64 2.76
  45  0.875  0.124  0.533-  48 2.75  29 2.75  17 2.75  46 2.75  30 2.75  62 2.75  49 2.75  18 2.75
                            33 2.75  50 2.76  41 2.76  61 2.76
  46  0.874  0.375  0.533-  42 2.73  34 2.74  47 2.74  51 2.74  45 2.75  30 2.75  31 2.75  62 2.76
                            50 2.76  19 2.76  18 2.76  63 2.81
  47  0.874  0.624  0.533-  46 2.74  64 2.74  51 2.74  48 2.75  31 2.75  43 2.75  32 2.75  19 2.75
                            52 2.76  35 2.76  20 2.77  63 2.85
  48  0.875  0.874  0.533-  36 2.74  44 2.74  32 2.75  47 2.75  45 2.75  29 2.75  20 2.75  52 2.75
                            61 2.75  49 2.75  17 2.76  64 2.77
  49  0.999  0.999  0.598-  52 2.74  61 2.74  50 2.75  53 2.75  45 2.75  36 2.75  48 2.75  33 2.76

[...]

  54  0.250  0.250  0.601-  65 2.18  58 2.72  55 2.72  53 2.76  50 2.76  33 2.78  34 2.81  37 2.82
                            38 2.83
  55  0.249  0.498  0.600-  65 2.20  59 2.72  54 2.72  56 2.76  51 2.78  35 2.78  34 2.80  39 2.82
                            38 2.83
  56  0.249  0.750  0.598-  60 2.74  53 2.74  35 2.75  52 2.75  36 2.75  39 2.75  55 2.76  40 2.76

[...]

  58  0.497  0.249  0.599-  65 2.16  54 2.72  57 2.75  59 2.75  41 2.76  62 2.76  37 2.77  42 2.79
                            38 2.81
  59  0.496  0.499  0.599-  65 2.16  55 2.72  63 2.73  58 2.75  43 2.75  60 2.75  39 2.76  42 2.79
                            38 2.79
  60  0.499  0.750  0.598-  57 2.73  56 2.74  64 2.75  43 2.75  59 2.75  44 2.76  40 2.76  39 2.77

[...]

  63  0.744  0.496  0.601-  70 1.82  59 2.73  62 2.73  64 2.76  51 2.77  42 2.77  43 2.78  46 2.81
                            47 2.85
  64  0.749  0.748  0.598-  47 2.74  52 2.75  43 2.75  60 2.75  61 2.75  63 2.76  44 2.76  48 2.77

  65  0.378  0.374  0.633-  66 1.26  59 2.16  58 2.16  54 2.18  55 2.20
  66  0.388  0.374  0.675-  65 1.26
  67  0.634  0.395  0.687-  68 0.99  69 1.02  70 1.25
  68  0.662  0.310  0.683-  67 0.99
  69  0.541  0.390  0.686-  67 1.02
  70  0.663  0.438  0.650-  67 1.25  63 1.82

  LATTYP: Found a simple tetragonal cell.
 ALAT       =    10.9820000000
 C/A-ratio  =     2.7317428519

  Lattice vectors:

 A1 = (  10.9820000000,   0.0000000000,   0.0000000000)
 A2 = (   0.0000000000,  10.9820000000,   0.0000000000)
 A3 = (   0.0000000000,   0.0000000000,  30.0000000000)

Analysis of symmetry for initial positions (statically):
 Subroutine PRICEL returns:
 Original cell was already a primitive cell.

 Routine SETGRP: Setting up the symmetry group for a
 simple tetragonal supercell.

 Subroutine GETGRP returns: Found  1 space group operations
 (whereof  1 operations were pure point group operations)
 out of a pool of 16 trial point group operations.

The static configuration has the point symmetry C_1 .

Analysis of symmetry for dynamics (positions and initial velocities):
 Subroutine PRICEL returns:
[...]
   -.108E+02 0.201E+02 -.795E+03   0.108E+02 -.201E+02 0.795E+03   -.933E-02 0.132E-01 0.667E-01   -.645E-05 -.248E-03 -.237E-02
   -.160E+02 -.241E+01 -.787E+03   0.161E+02 0.243E+01 0.787E+03   -.838E-01 -.242E-01 0.113E+00   -.257E-04 -.362E-03 -.198E-02
   -.935E+01 -.174E+02 -.806E+03   0.939E+01 0.174E+02 0.806E+03   -.341E-01 -.159E-01 0.978E-01   0.136E-03 0.231E-03 -.224E-02
   -.609E+01 0.131E+00 -.810E+03   0.606E+01 -.152E+00 0.810E+03   0.223E-01 0.144E-01 0.156E-01   0.319E-04 0.375E-03 -.262E-02
   0.358E+01 0.229E+02 -.256E+04   -.360E+01 -.229E+02 0.256E+04   0.931E-02 0.997E-03 0.322E+01   -.524E-05 0.150E-03 -.817E-03
   0.914E+01 0.309E+02 -.254E+04   -.910E+01 -.309E+02 0.254E+04   -.322E-01 0.715E-02 0.326E+01   -.189E-03 -.152E-03 -.580E-03
   0.585E+01 -.304E+02 -.254E+04   -.584E+01 0.304E+02 0.253E+04   -.240E-02 -.492E-02 0.332E+01   0.358E-04 -.121E-03 -.557E-03
   0.227E+01 -.242E+02 -.256E+04   -.229E+01 0.242E+02 0.256E+04   0.241E-01 0.342E-01 0.325E+01   0.275E-03 0.120E-03 -.790E-03
   0.281E+02 0.445E+02 -.255E+04   -.281E+02 -.444E+02 0.255E+04   0.174E-01 -.885E-01 0.327E+01   -.334E-03 -.283E-03 -.378E-03
   0.159E+03 0.143E+03 -.245E+04   -.159E+03 -.143E+03 0.245E+04   0.279E+00 0.234E+00 0.254E+01   -.447E-03 -.346E-04 -.477E-03
   0.161E+03 -.140E+03 -.245E+04   -.161E+03 0.141E+03 0.245E+04   0.277E+00 -.289E+00 0.267E+01   -.221E-03 0.239E-03 -.795E-03
   0.294E+02 -.452E+02 -.254E+04   -.294E+02 0.451E+02 0.254E+04   0.145E-01 0.893E-01 0.326E+01   -.192E-03 0.621E-04 -.712E-03
   -.737E+01 0.563E+02 -.254E+04   0.739E+01 -.562E+02 0.253E+04   -.158E-01 -.921E-01 0.321E+01   0.334E-04 -.171E-03 -.586E-03
   -.850E+02 0.183E+03 -.235E+04   0.853E+02 -.184E+03 0.235E+04   -.246E+00 0.442E+00 0.245E+01   0.205E-03 0.332E-04 -.699E-03
   -.669E+02 -.179E+03 -.233E+04   0.674E+02 0.179E+03 0.232E+04   -.480E+00 -.355E+00 0.233E+01   -.326E-04 0.723E-04 -.962E-03
   -.494E+01 -.629E+02 -.254E+04   0.492E+01 0.628E+02 0.253E+04   0.184E-01 0.532E-01 0.328E+01   -.249E-03 0.731E-04 -.844E-03
   -.248E+02 0.368E+02 -.255E+04   0.248E+02 -.367E+02 0.255E+04   0.971E-02 -.918E-01 0.317E+01   0.303E-03 0.189E-03 -.103E-02
   -.807E+02 0.749E+02 -.246E+04   0.806E+02 -.749E+02 0.246E+04   0.137E+00 -.601E-01 0.255E+01   0.431E-03 -.758E-04 -.804E-03
   -.115E+03 -.815E+02 -.247E+04   0.113E+03 0.804E+02 0.247E+04   0.161E+01 0.102E+01 0.612E+00   0.222E-03 -.212E-03 -.647E-03
   -.282E+02 -.435E+02 -.254E+04   0.282E+02 0.434E+02 0.254E+04   -.466E-02 0.673E-01 0.325E+01   0.165E-03 0.976E-04 -.925E-03
   0.688E+02 0.432E+01 -.134E+04   -.721E+02 -.445E+01 0.132E+04   0.326E+01 0.131E+00 0.233E+02   -.817E-04 0.538E-04 0.125E-03
   0.789E+02 0.614E+01 -.208E+04   -.800E+02 -.630E+01 0.213E+04   0.106E+01 0.176E+00 -.491E+02   -.705E-04 -.417E-05 0.638E-03
   -.114E+03 -.406E+02 -.188E+04   0.133E+03 0.713E+02 0.190E+04   -.185E+02 -.307E+02 -.187E+02   0.141E-03 -.402E-04 0.548E-03
   -.412E+02 0.852E+02 -.301E+03   0.439E+02 -.926E+02 0.301E+03   -.271E+01 0.744E+01 0.846E+00   0.318E-04 -.279E-04 0.102E-03
   0.471E+02 -.861E+00 -.317E+03   -.541E+02 0.668E+00 0.317E+03   0.698E+01 0.202E+00 -.117E-01   0.142E-05 -.256E-05 0.106E-03
   -.217E+02 -.208E+02 -.281E+03   0.219E+02 0.213E+02 0.280E+03   -.215E+00 -.545E+00 0.105E+01   0.245E-04 -.721E-05 0.466E-04
   0.877E+01 0.225E+02 0.481E+02   0.334E-12 0.313E-12 -.210E-10   -.878E+01 -.225E+02 -.480E+02   0.360E-04 -.516E-04 -.101E+00

 POSITION                                       TOTAL-FORCE (eV/Angst)
      1.37285      1.37280     12.08749        -0.021759     -0.019243     -0.016133
      1.37288      4.11823     12.08736        -0.043617      0.003755      0.006199
      1.37288      6.86384     12.08729        -0.028865     -0.006289     -0.001788
      1.37284      9.60939     12.08743        -0.010832      0.008908     -0.005813
      4.11831      1.37284     12.08762        -0.011598     -0.021044     -0.001680
      4.11830      4.11823     12.08753        -0.016673     -0.002837      0.002656
      4.11825      6.86383     12.08737        -0.014623      0.010342      0.010161
      4.11826      9.60941     12.08748        -0.015011     -0.004942      0.010823
      6.86370      1.37287     12.08763         0.011730     -0.012983      0.005864
      6.86369      4.11822     12.08749         0.008518     -0.013564      0.013855
      6.86368      6.86387     12.08724         0.007044      0.002839      0.001020
      6.86370      9.60946     12.08741         0.029097     -0.018212      0.005555
      9.60923      1.37281     12.08747        -0.006549     -0.020583      0.008763
      9.60927      4.11821     12.08728        -0.011882     -0.008544      0.024729
      9.60931      6.86389     12.08713        -0.010395      0.007343      0.005391
      9.60927      9.60944     12.08735        -0.013134     -0.015496     -0.037081
     10.98069     10.97920     14.04138         0.000737      0.002701      0.012305
     10.97634      2.74020     14.04163         0.003033      0.001043      0.000060
     10.97054      5.49162     14.04631         0.002881      0.001789      0.006601
     10.97961      8.23390     14.03815        -0.000298     -0.002974      0.002106
      2.73733     10.98036     14.04205         0.001759     -0.002006      0.000143
      2.73194      2.73937     14.03639         0.007918      0.004439      0.002935
      2.73001      5.49200     14.03928         0.002016      0.003558     -0.005980
      2.73619      8.23494     14.04118         0.004011      0.001628     -0.006406
      5.49220     10.97817     14.03752         0.000867     -0.002853      0.011875
      5.48847      2.73897     14.03756        -0.000035     -0.003903     -0.003407
      5.48842      5.49140     14.03762        -0.002804      0.002879      0.007971
      5.49208      8.23359     14.03870         0.001233     -0.003754     -0.000932
      8.23675     10.97448     14.04350        -0.000269      0.002829      0.002693
      8.23368      2.73730     14.04542         0.001796      0.005138     -0.010317
      8.23020      5.48851     14.04418         0.003860      0.001296      0.003041
      8.23584      8.22762     14.04728        -0.000955      0.004914     -0.012493
      1.37881      1.38689     16.01769         0.002467      0.002846     -0.003973
      1.34776      4.11276     15.99739         0.001026      0.006237      0.002736
      1.37020      6.84092     16.01485        -0.000592     -0.000580      0.010397
      1.36658      9.60523     15.99137        -0.003378     -0.004686     -0.001955
      4.10478      1.35836     15.98050         0.002052     -0.004003     -0.002979
      4.09454      4.11209     15.93482         0.001200     -0.001036      0.007649
      4.10236      6.86911     15.97779        -0.003328      0.005582      0.003842
      4.11534      9.60563     15.98478        -0.007992     -0.005131      0.004212
      6.84498      1.37039     16.00419        -0.005947      0.002289     -0.003499
      6.86205      4.10910     15.98487         0.006952     -0.001701     -0.002078
      6.84407      6.84088     16.01390        -0.000889     -0.003815      0.008852
      6.86052      9.59739     15.99296         0.006254     -0.002616      0.001462
      9.60630      1.36323     15.99324        -0.002747     -0.001450     -0.000894
      9.59299      4.11360     16.00218        -0.003065     -0.000156     -0.003564
      9.59376      6.85061     16.00344         0.003585      0.000526      0.008598
      9.60509      9.59762     15.99383        -0.005701     -0.004419      0.001187
     10.97605     10.97288     17.94772        -0.003462      0.001201     -0.007651
     10.96119      2.73773     17.96291         0.009237     -0.001577     -0.002245
     10.93697      5.48397     17.96336         0.007991      0.001023     -0.002943
     10.97575      8.22998     17.94978        -0.004122      0.003958     -0.009203
      2.74184     10.97312     17.95195        -0.001084     -0.000677     -0.008143
      2.74139      2.75045     18.01939         0.005841      0.003726      0.000458
      2.73021      5.47399     18.01197         0.007350      0.003252      0.001978
      2.73899      8.23305     17.94461        -0.001876     -0.000311      0.007298
      5.48359     10.96978     17.94984         0.004345      0.000773     -0.005089
      5.46072      2.73444     17.96301         0.007664     -0.002458     -0.002401
      5.44487      5.48228     17.95501         0.013244      0.000236     -0.004911
      5.47831      8.23580     17.95355         0.004239      0.001449     -0.014290
      8.23110     10.96407     17.95086         0.001090      0.006287     -0.009048
      8.22141      2.71895     17.94667         0.009853      0.000669      0.000521
      8.16905      5.44936     18.02869         0.008614      0.007810     -0.005097
      8.22966      8.20995     17.95364         0.000957      0.003930     -0.005257
      4.14678      4.10442     18.99179         0.012016      0.000987     -0.013948
      4.25916      4.11228     20.24604         0.016596      0.020006      0.010942
      6.96028      4.33955     20.60512         0.006833      0.002026     -0.006792
      7.27457      3.40912     20.49049         0.017915      0.011565     -0.034748
      5.94583      4.28480     20.58319         0.002036      0.008864     -0.009741
      7.28350      4.81135     19.48990         0.007628      0.033201      0.047598
    total drift:                               -0.007726     -0.007400      0.019860

  FREE ENERGIE OF THE ION-ELECTRON SYSTEM (eV)
  free  energy   TOTEN  =      -368.87477561 eV

  energy  without entropy=     -368.75722859  energy(sigma->0) =     -368.83559327

 NEB: the previous image is higher in energy: F
 NEB: the next image is higher in energy    : F
 NEB: image is at an extrema
 NEB: diff energy (min, max):     0.184372    0.233965

 NEB: Tangent
     -0.00011     -0.00003      0.00054
     -0.00014      0.00000      0.00065
     -0.00013     -0.00012      0.00070
     -0.00010     -0.00014      0.00058
     -0.00008     -0.00008      0.00039
     -0.00008     -0.00000      0.00046
     -0.00003     -0.00009      0.00061
     -0.00003     -0.00016      0.00052
      0.00002     -0.00011      0.00040
      0.00003      0.00000      0.00045
      0.00004     -0.00011      0.00070
      0.00002     -0.00020      0.00059
     -0.00002     -0.00005      0.00056
     -0.00005      0.00001      0.00070
     -0.00009     -0.00014      0.00084
     -0.00006     -0.00019      0.00066
      0.00347     -0.00145      0.00199
      0.00477     -0.00011      0.00077
      0.00263     -0.00075      0.00100
     -0.00100     -0.00173      0.00542
      0.00215      0.00071      0.00082
      0.00297      0.00000     -0.00059
      0.00042      0.00130     -0.00183
     -0.00066      0.00199      0.00008
      0.00150     -0.00049      0.00285
      0.00324     -0.00068     -0.00074
      0.00096      0.00092      0.00037
      0.00082      0.00013      0.00287
      0.00013     -0.00317     -0.00102
      0.00323     -0.00288     -0.00105
      0.00111     -0.00011     -0.00052
     -0.00199     -0.00013     -0.00137
      0.00955      0.00238      0.00499
      0.00509      0.00058      0.00208
      0.00176     -0.00058      0.00492
      0.00243      0.00060      0.00438
      0.00487      0.00002      0.00193
      0.00307      0.00068     -0.00749
     -0.00541      0.00725     -0.00321
      0.00115      0.00241      0.00381
      0.00414     -0.00311      0.00167
      0.00707     -0.00249      0.00164
     -0.00050     -0.00454      0.00497
      0.00089     -0.00400      0.00387
      0.01086     -0.00870     -0.00644
      0.00511     -0.00255     -0.00499
      0.00004     -0.00041     -0.00148
      0.00015     -0.00372      0.00114
      0.00421     -0.00031      0.00116
      0.01099      0.00134      0.00032
     -0.00789     -0.00280     -0.00041
     -0.00223     -0.00160      0.00171
      0.00478      0.00221      0.00482
      0.01618      0.00399      0.00723
     -0.00623      0.00276      0.00607
     -0.00144      0.00244      0.00702
      0.00576      0.00380      0.00465
      0.02023      0.00614     -0.00554
     -0.00914      0.01397     -0.02353
      0.00043      0.00147      0.00346
      0.00574     -0.01402      0.00148
      0.02935     -0.02279     -0.02487
     -0.00923     -0.02528     -0.00560
     -0.00064     -0.01647      0.00416
      0.04311      0.01624     -0.06407
      0.03270      0.02207      0.01684
     -0.15047     -0.11106     -0.03717
     -0.13108     -0.11800      0.02885
     -0.49764     -0.05569     -0.16316
     -0.12233     -0.01249      0.79036

 NEB: forces: par spring, perp REAL, dneb     3.026012    0.094421    0.000000
 NEB: distance to prev, next image, angle between     0.793723    1.398925   87.823501
 NEB: projections on to tangent (spring, REAL)     3.026012    0.033566

 stress matrix after NEB project (eV)
    -39.48028     -0.08767      0.92960
     -0.08767    -38.92627      0.72040
      0.92960      0.72040     -5.62070
  FORCES: max atom, RMS     0.049388    0.011977
  FORCE total and by dimension    0.100209    0.036685
  Stress total and by dimension   55.752321   39.480282
 Quasi-Newton relaxation of ions (Broydens 2nd method)
  g(Force)  = 0.107E-02   g(Stress)= 0.000E+00

 Reset! Starting new Quasi-Newton update for ions

 reached required accuracy - stopping structural energy minimisation

 total charge

[...]

 magnetization (x)

# of ion       s       p       d       tot
    1       -0.000  -0.004   0.230   0.226
    2       -0.001  -0.003   0.226   0.221
    3       -0.000  -0.004   0.225   0.221
    4       -0.001  -0.003   0.232   0.227
    5       -0.001  -0.004   0.229   0.224
    6       -0.000  -0.004   0.229   0.225
    7       -0.001  -0.004   0.224   0.220
    8       -0.000  -0.004   0.218   0.213
    9       -0.001  -0.004   0.223   0.219
   10       -0.001  -0.003   0.226   0.222
   11       -0.000  -0.004   0.224   0.220
   12       -0.001  -0.003   0.226   0.222
   13       -0.001  -0.003   0.222   0.218
   14       -0.000  -0.004   0.212   0.207
   15       -0.001  -0.003   0.223   0.219
   16        0.003  -0.004   0.238   0.237
   17       -0.002  -0.006   0.315   0.307
   18       -0.002  -0.006   0.319   0.311
   19       -0.002  -0.006   0.315   0.307
   20       -0.002  -0.006   0.318   0.310
   21       -0.002  -0.006   0.327   0.318
   22       -0.002  -0.006   0.324   0.316
   23       -0.002  -0.006   0.320   0.312
   24       -0.002  -0.006   0.319   0.311
   25       -0.002  -0.006   0.321   0.313
   26       -0.002  -0.006   0.316   0.308
   27       -0.002  -0.006   0.317   0.309
   28       -0.002  -0.006   0.320   0.312
   29       -0.002  -0.006   0.311   0.303
   30       -0.002  -0.006   0.314   0.306
   31       -0.002  -0.006   0.321   0.313
   32       -0.002  -0.006   0.311   0.304
   33       -0.002  -0.006   0.283   0.275
   34       -0.002  -0.006   0.305   0.298
   35       -0.002  -0.006   0.277   0.269
   36       -0.002  -0.006   0.313   0.306
   37       -0.002  -0.006   0.311   0.304
   38       -0.001  -0.005   0.262   0.256
   39       -0.002  -0.006   0.304   0.297
   40       -0.002  -0.006   0.315   0.307
   41       -0.002  -0.006   0.268   0.260
   42       -0.001  -0.005   0.287   0.280
   43       -0.002  -0.006   0.267   0.259
   44       -0.002  -0.006   0.308   0.301
   45       -0.002  -0.006   0.304   0.296
   46       -0.002  -0.006   0.298   0.291
   47       -0.002  -0.006   0.297   0.290
   48       -0.001  -0.006   0.319   0.312
   49       -0.001  -0.003   0.221   0.217
   50       -0.000  -0.003   0.205   0.201
   51       -0.000  -0.003   0.200   0.196
   52       -0.001  -0.003   0.222   0.218
   53       -0.001  -0.003   0.208   0.204
   54       -0.002  -0.004   0.099   0.093
   55       -0.002  -0.004   0.101   0.095
   56       -0.001  -0.003   0.208   0.204
   57       -0.001  -0.003   0.204   0.200
   58       -0.002  -0.004   0.093   0.087
   59       -0.002  -0.004   0.087   0.081
   60       -0.000  -0.003   0.207   0.203
   61       -0.001  -0.003   0.208   0.204
   62       -0.001  -0.004   0.176   0.172
   63       -0.001  -0.005   0.113   0.107
   64       -0.001  -0.003   0.206   0.203
   65        0.001  -0.010   0.000  -0.009
   66       -0.000  -0.014   0.000  -0.014
   67       -0.000  -0.001   0.000  -0.002
   68        0.000  -0.000   0.000   0.000
   69       -0.000  -0.000   0.000  -0.000
   70       -0.001  -0.000   0.000  -0.001
tot         -0.081  -0.331  16.172  15.760