 vasp.5.4.4.18Apr17-6-g9f103f2a35 (build May 01 2020 14:57:12) complex

 executed on             LinuxIFC date 2021.12.14  07:33:00

 INCAR:
 POTCAR:    PAW_PBE H 15Jun2001
 POTCAR:    PAW_PBE N 08Apr2002
 POTCAR:    PAW_PBE O 08Apr2002
 POTCAR:    PAW_PBE Pd 04Jan2005

 POTCAR:    PAW_PBE H 15Jun2001
   VRHFIN =H: ultrasoft test

   TITEL  = PAW_PBE H 15Jun2001
   POMASS =    1.000; ZVAL   =    1.000    mass and valenz
   ENMAX  =  250.000; ENMIN  =  200.000 eV

 POTCAR:    PAW_PBE N 08Apr2002
   VRHFIN =N: s2p3

   TITEL  = PAW_PBE N 08Apr2002
   POMASS =   14.001; ZVAL   =    5.000    mass and valenz
   ENMAX  =  400.000; ENMIN  =  300.000 eV

 POTCAR:    PAW_PBE O 08Apr2002
   VRHFIN =O: s2p4

   TITEL  = PAW_PBE O 08Apr2002
   POMASS =   16.000; ZVAL   =    6.000    mass and valenz
   ENMAX  =  400.000; ENMIN  =  300.000 eV

 POTCAR:    PAW_PBE Pd 04Jan2005
   VRHFIN =Pd : s1 d9

   TITEL  = PAW_PBE Pd 04Jan2005
   POMASS =  106.420; ZVAL   =   10.000    mass and valenz
   ENMAX  =  250.925; ENMIN  =  188.194 eV

 Optimization of the real space projectors (new method)

 maximal supplied QI-value         = 34.20
 optimisation between [QCUT,QGAM] = [  9.92, 20.18] = [ 27.55,114.04] Ry
 Optimized for a Real-space Cutoff    1.34 Angstroem

   l    n(q)    QCUT    max X(q) W(low)/X(q) W(high)/X(q)  e(spline)
   0      8     9.919    19.460    0.16E-03    0.20E-03    0.36E-06
   0      8     9.919    12.209    0.16E-03    0.20E-03    0.35E-06
   1      8     9.919     4.655    0.19E-03    0.46E-03    0.40E-06
 Optimization of the real space projectors (new method)

[...]

   l    n(q)    QCUT    max X(q) W(low)/X(q) W(high)/X(q)  e(spline)
   0      9    10.150    20.381    0.17E-03    0.18E-03    0.41E-06
   0      9    10.150    15.268    0.18E-03    0.20E-03    0.43E-06
   1      9    10.150     5.964    0.16E-03    0.20E-03    0.36E-06
   1      9    10.150     5.382    0.13E-03    0.16E-03    0.33E-06
 Optimization of the real space projectors (new method)

 maximal supplied QI-value         = 14.36
 optimisation between [QCUT,QGAM] = [ 10.20, 20.39] = [ 29.12,116.47] Ry
 Optimized for a Real-space Cutoff    1.55 Angstroem

   l    n(q)    QCUT    max X(q) W(low)/X(q) W(high)/X(q)  e(spline)
   2      9    10.197    59.108    0.12E-03    0.40E-04    0.11E-06
   2      9    10.197    58.101    0.12E-03    0.39E-04    0.12E-06
   0      9    10.197   102.235    0.41E-04    0.86E-05    0.83E-07
   0      9    10.197    58.388    0.37E-04    0.79E-05    0.78E-07
   1      9    10.197    22.191    0.25E-03    0.13E-03    0.84E-07
   1      9    10.197    15.590    0.21E-03    0.11E-03    0.74E-07
  PAW_PBE H 15Jun2001                   :
  PAW_PBE N 08Apr2002                   :
  PAW_PBE O 08Apr2002                   :
  PAW_PBE Pd 04Jan2005                  :

 POSCAR: H N O Pd
  positions in direct lattice
  velocities in cartesian coordinates
 exchange correlation table for  LEXCH =        8
   RHO(1)=    0.500       N(1)  =     2000
   RHO(2)=  100.500       N(2)  =     4000

 ion  position               nearest neighbor table
   1  0.366  0.639  0.611-  62 1.82  66 1.95  61 2.00  65 2.13
   2  0.446  0.566  0.688-   6 0.98
   3  0.468  0.426  0.690-   6 0.98
   4  0.375  0.244  0.646-   5 1.21  60 1.95  64 1.95
   5  0.377  0.272  0.685-   4 1.21
   6  0.505  0.503  0.681-   2 0.98   3 0.98  65 2.37
   7  0.125  0.125  0.403-   8 2.75  11 2.75  10 2.75  19 2.75  23 2.75  27 2.75  24 2.76  28 2.77

   8  0.125  0.375  0.403-   7 2.75   9 2.75  12 2.75  20 2.75  25 2.75  29 2.75  24 2.76  28 2.76

[...]

  23  1.000  0.000  0.468-  24 2.74  35 2.74  19 2.74  27 2.74   7 2.75  22 2.75  51 2.75  26 2.75
                            10 2.75  54 2.75  42 2.75  39 2.78
  24  0.001  0.250  0.468-  25 2.74  23 2.74  28 2.74  52 2.75  51 2.75  39 2.75   8 2.76   7 2.76
                            36 2.76  20 2.76  19 2.76  40 2.77
  25  0.000  0.500  0.468-  24 2.74  29 2.74  41 2.75   8 2.75  37 2.75  52 2.75  20 2.75  26 2.75
                            53 2.75   9 2.75  21 2.76  40 2.79
  26  1.000  0.750  0.468-  41 2.74  54 2.74  30 2.74  42 2.75  53 2.75  38 2.75  23 2.75  25 2.75
                            22 2.75  21 2.75  10 2.75   9 2.75
  27  0.249  0.001  0.468-  46 2.74  28 2.74  23 2.74   7 2.75  42 2.75  11 2.75  31 2.75  30 2.75
                            10 2.75  14 2.76  39 2.76  43 2.77
  28  0.250  0.250  0.468-  29 2.74  32 2.74  27 2.74  24 2.74  43 2.75  39 2.75  40 2.75  12 2.76
                            11 2.76   8 2.76  44 2.76   7 2.77
  29  0.250  0.499  0.468-  28 2.74  45 2.74  25 2.74  41 2.75  33 2.75  30 2.75   8 2.75  12 2.75
                             9 2.76  13 2.76  44 2.77  40 2.77
  30  0.250  0.750  0.468-  46 2.74  26 2.74  34 2.75  41 2.75  45 2.75   9 2.75  29 2.75  42 2.75
                            10 2.75  13 2.75  14 2.75  27 2.75
  31  0.500  0.001  0.468-  32 2.74  35 2.74  46 2.75  50 2.75  15 2.75  11 2.75  27 2.75  18 2.75
                            34 2.76  14 2.76  47 2.76  43 2.77
  32  0.500  0.250  0.468-  33 2.73  28 2.74  36 2.74  31 2.74  47 2.75  43 2.75  44 2.76  12 2.76
                            48 2.76  11 2.76  16 2.76  15 2.77
  33  0.500  0.499  0.468-  32 2.73  45 2.74  37 2.74  49 2.75  16 2.75  29 2.75  34 2.75  12 2.75
                            17 2.75  13 2.76  44 2.76  48 2.77
  34  0.500  0.750  0.468-  45 2.74  38 2.74  50 2.74  30 2.75  46 2.75  33 2.75  13 2.75  17 2.75
                            14 2.75  31 2.76  18 2.76  49 2.76
  35  0.750  0.000  0.468-  23 2.74  31 2.74  36 2.74  54 2.75  15 2.75  19 2.75  18 2.75  22 2.75
                            51 2.75  38 2.75  50 2.75  47 2.78
  36  0.749  0.250  0.468-  37 2.74  32 2.74  51 2.74  35 2.74  52 2.75  47 2.75  16 2.76  15 2.76
                            24 2.76  20 2.77  19 2.77  48 2.78
  37  0.750  0.499  0.468-  36 2.74  33 2.74  49 2.75  52 2.75  53 2.75  25 2.75  16 2.75  38 2.75
                            20 2.75  17 2.76  21 2.76  48 2.79
  38  0.750  0.750  0.468-  34 2.74  54 2.74  50 2.74  53 2.75  26 2.75  35 2.75  37 2.75  17 2.75
                            18 2.75  21 2.75  22 2.76  49 2.76
  39  0.125  0.126  0.534-  40 2.72  43 2.74  59 2.74  51 2.75  28 2.75  24 2.75  42 2.75  56 2.75
                            55 2.76  27 2.76  23 2.78  60 2.80
  40  0.127  0.374  0.534-  39 2.72  44 2.74  57 2.75  28 2.75  61 2.75  41 2.75  56 2.75  52 2.76
                            60 2.76  29 2.77  24 2.77  25 2.79
  41  0.124  0.625  0.533-  53 2.74  26 2.74  25 2.75  30 2.75  29 2.75  42 2.75  61 2.75  40 2.75
                            57 2.76  45 2.76  58 2.76  62 2.78
  42  0.125  0.875  0.533-  59 2.74  46 2.74  54 2.75  26 2.75  27 2.75  41 2.75  30 2.75  23 2.75
                            39 2.75  58 2.76  55 2.76  62 2.76
  43  0.375  0.126  0.534-  39 2.74  44 2.74  47 2.74  28 2.75  46 2.75  32 2.75  59 2.76  63 2.76
                            27 2.77  31 2.77  64 2.84  60 2.86
  44  0.376  0.376  0.534-  48 2.72  45 2.73  40 2.74  43 2.74  32 2.76  33 2.76  28 2.76  61 2.77
                            29 2.77  65 2.83  64 2.84  60 2.85
  45  0.376  0.624  0.532-  44 2.73  49 2.73  34 2.74  33 2.74  29 2.74  30 2.75  61 2.76  46 2.76
                            41 2.76  66 2.77  62 2.81  65 2.83
  46  0.374  0.876  0.532-  27 2.74  42 2.74  30 2.74  31 2.75  34 2.75  50 2.75  63 2.75  43 2.75
                            59 2.75  45 2.76  66 2.76  62 2.78
  47  0.624  0.126  0.534-  48 2.73  43 2.74  63 2.75  32 2.75  36 2.75  51 2.75  68 2.75  67 2.75
                            50 2.76  31 2.76  35 2.78  64 2.78
  48  0.623  0.375  0.535-  44 2.72  47 2.73  49 2.73  68 2.75  69 2.75  32 2.76  64 2.77  52 2.77
                            33 2.77  36 2.78  37 2.79  65 2.80
  49  0.625  0.623  0.533-  48 2.73  45 2.73  33 2.75  37 2.75  53 2.75  70 2.75  38 2.76  34 2.76
                            50 2.76  69 2.76  66 2.78  65 2.79
  50  0.625  0.875  0.533-  63 2.74  34 2.74  38 2.74  54 2.75  31 2.75  46 2.75  70 2.75  35 2.75
                            47 2.76  66 2.76  67 2.76  49 2.76
  51  0.875  0.125  0.533-  54 2.74  36 2.74  24 2.75  52 2.75  23 2.75  35 2.75  39 2.75  47 2.75
                            55 2.75  68 2.76  56 2.76  67 2.76
  52  0.875  0.375  0.533-  69 2.74  53 2.74  24 2.75  36 2.75  51 2.75  37 2.75  25 2.75  56 2.75
                            40 2.76  68 2.76  57 2.77  48 2.77
  53  0.875  0.625  0.533-  41 2.74  69 2.74  52 2.74  49 2.75  38 2.75  26 2.75  54 2.75  37 2.75
                            58 2.75  25 2.75  70 2.76  57 2.76
  54  0.875  0.875  0.533-  51 2.74  38 2.74  26 2.74  42 2.75  50 2.75  35 2.75  53 2.75  58 2.75
                            23 2.75  67 2.75  55 2.76  70 2.76
  55  0.999  1.000  0.598-  67 2.73  58 2.74  59 2.75  56 2.75  51 2.75  39 2.76  54 2.76  42 2.76

[...]

  60  0.244  0.252  0.602-   4 1.95  56 2.71  40 2.76  61 2.77  59 2.79  39 2.80  44 2.85  64 2.86
                            43 2.86
  61  0.250  0.504  0.599-   1 2.00  62 2.72  57 2.75  41 2.75  40 2.75  45 2.76  44 2.77  65 2.77
                            60 2.77
  62  0.248  0.752  0.599-   1 1.82  59 2.71  61 2.72  58 2.74  66 2.75  42 2.76  41 2.78  46 2.78
                            45 2.81
  63  0.500  0.998  0.598-  66 2.70  50 2.74  67 2.75  47 2.75  46 2.75  43 2.76  59 2.76  64 2.76

  64  0.505  0.249  0.602-   4 1.95  68 2.71  63 2.76  48 2.77  47 2.78  65 2.79  43 2.84  44 2.84
                            60 2.86
  65  0.502  0.503  0.602-   1 2.13   6 2.37  66 2.73  69 2.76  61 2.77  49 2.79  64 2.79  48 2.80
                            45 2.83  44 2.83
  66  0.499  0.751  0.598-   1 1.95  63 2.70  65 2.73  70 2.75  62 2.75  50 2.76  46 2.76  45 2.77
                            49 2.78
  67  0.750  0.999  0.598-  55 2.73  70 2.74  63 2.75  68 2.75  54 2.75  47 2.75  51 2.76  50 2.76

[...]

  70  0.749  0.750  0.598-  67 2.74  58 2.74  69 2.75  66 2.75  50 2.75  49 2.75  53 2.76  54 2.76

  LATTYP: Found a simple tetragonal cell.
 ALAT       =    10.9820000000
 C/A-ratio  =     2.7317428519

  Lattice vectors:

 A1 = (  10.9820000000,   0.0000000000,   0.0000000000)
 A2 = (   0.0000000000,  10.9820000000,   0.0000000000)
 A3 = (   0.0000000000,   0.0000000000,  30.0000000000)

Analysis of symmetry for initial positions (statically):
 Subroutine PRICEL returns:
 Original cell was already a primitive cell.

 Routine SETGRP: Setting up the symmetry group for a
 simple tetragonal supercell.

 Subroutine GETGRP returns: Found  1 space group operations
 (whereof  1 operations were pure point group operations)
 out of a pool of 16 trial point group operations.

The static configuration has the point symmetry C_1 .

Analysis of symmetry for dynamics (positions and initial velocities):
 Subroutine PRICEL returns:
 Original cell was already a primitive cell.

[...]

The dynamic configuration has the point symmetry C_1 .

Analysis of constrained symmetry for selective dynamics:
 Subroutine PRICEL returns:
 Original cell was already a primitive cell.

[...]

The constrained configuration has the point symmetry C_1 .

Analysis of structural, dynamic, and magnetic symmetry:
[...]
   -.422E+00 0.210E+01 0.269E+04   0.423E+00 -.210E+01 -.268E+04   0.352E-02 -.802E-01 -.332E+01   -.643E-02 0.636E-01 -.463E-02
   -.473E+00 0.142E+00 0.269E+04   0.473E+00 -.219E-01 -.268E+04   0.506E-02 -.516E-01 -.321E+01   -.782E-02 -.196E-01 0.110E-01
   -.232E+00 0.983E+00 0.269E+04   0.267E+00 -.994E+00 -.268E+04   -.239E-01 0.150E-01 -.328E+01   -.624E-02 -.633E-01 -.259E-01
   0.331E+00 0.683E+00 0.974E+03   -.405E+00 -.654E+00 -.975E+03   0.893E-01 0.910E-02 0.106E+00   -.162E-01 -.359E-01 -.528E-01
   0.320E+01 0.436E+00 0.967E+03   -.318E+01 -.514E+00 -.967E+03   0.117E-02 -.542E-03 -.749E-01   -.161E-01 0.771E-01 -.438E-01
   0.184E+01 -.543E-01 0.974E+03   -.186E+01 0.123E-01 -.974E+03   0.328E-01 0.425E-02 0.425E-01   -.143E-01 0.355E-01 -.383E-01
   0.233E+01 -.123E+01 0.970E+03   -.229E+01 0.130E+01 -.970E+03   -.283E-01 0.746E-02 -.112E+00   -.132E-01 -.793E-01 -.479E-01
   0.380E+01 0.136E+01 0.977E+03   -.384E+01 -.135E+01 -.977E+03   0.417E-01 0.388E-01 -.873E-02   0.884E-03 -.394E-01 -.406E-01
   0.708E+01 0.258E+01 0.976E+03   -.707E+01 -.266E+01 -.976E+03   -.389E-02 0.359E-02 -.134E+00   0.169E-02 0.826E-01 -.366E-01
   0.818E+01 -.121E+01 0.981E+03   -.821E+01 0.120E+01 -.981E+03   0.242E-01 -.312E-01 -.138E-01   0.818E-02 0.409E-01 -.268E-01
   0.566E+01 -.302E+01 0.980E+03   -.568E+01 0.310E+01 -.980E+03   0.868E-02 0.139E-02 -.410E-01   0.832E-02 -.829E-01 -.346E-01
   -.160E+01 0.178E+01 0.979E+03   0.166E+01 -.175E+01 -.979E+03   -.727E-01 0.177E-01 0.403E-01   0.153E-01 -.408E-01 -.321E-01
   -.483E+01 0.403E+01 0.978E+03   0.480E+01 -.412E+01 -.977E+03   0.195E-01 0.490E-02 -.145E+00   0.159E-01 0.843E-01 -.261E-01
   -.440E+01 -.131E+01 0.989E+03   0.441E+01 0.129E+01 -.989E+03   -.241E-01 -.282E-01 -.460E-01   0.147E-01 0.425E-01 -.185E-01
   -.380E+01 -.471E+01 0.981E+03   0.377E+01 0.478E+01 -.981E+03   0.123E-01 0.104E-01 -.545E-01   0.154E-01 -.854E-01 -.252E-01
   -.247E+01 0.766E+00 0.975E+03   0.253E+01 -.747E+00 -.975E+03   -.629E-01 0.161E-01 0.840E-01   -.900E-03 -.373E-01 -.453E-01
   -.559E+01 0.381E+00 0.968E+03   0.559E+01 -.490E+00 -.968E+03   0.152E-02 0.326E-01 -.491E-01   -.176E-02 0.812E-01 -.374E-01
   -.548E+01 0.909E-01 0.975E+03   0.554E+01 -.134E+00 -.975E+03   -.489E-01 0.971E-03 0.260E-01   -.733E-02 0.384E-01 -.300E-01
   -.436E+01 -.137E+01 0.972E+03   0.435E+01 0.148E+01 -.972E+03   0.140E-01 -.301E-01 -.692E-01   -.735E-02 -.802E-01 -.395E-01
   0.208E+02 0.154E+02 -.795E+03   -.207E+02 -.153E+02 0.795E+03   -.107E+00 -.192E+00 -.101E+00   0.324E-03 0.319E-01 -.801E-02
   0.277E+02 -.603E+01 -.794E+03   -.275E+02 0.569E+01 0.795E+03   -.216E+00 0.263E+00 -.304E+00   0.380E-02 0.741E-01 -.262E-01
   0.181E+02 -.119E+02 -.779E+03   -.183E+02 0.119E+02 0.779E+03   0.160E+00 0.293E-01 0.198E+00   0.539E-02 -.313E-01 -.418E-01
   0.153E+02 0.178E+01 -.789E+03   -.152E+02 -.170E+01 0.790E+03   -.469E-01 -.490E-02 -.305E-01   0.452E-02 -.765E-01 -.215E-01
   0.490E+01 0.176E+02 -.766E+03   -.493E+01 -.179E+02 0.765E+03   0.159E-01 0.251E+00 0.640E+00   0.151E-01 0.330E-01 0.581E-02
   0.794E+01 0.143E+01 -.755E+03   -.790E+01 -.132E+01 0.754E+03   -.698E-01 -.190E+00 0.601E+00   0.183E-01 0.802E-01 -.152E-01
   0.871E+01 -.205E+02 -.736E+03   -.858E+01 0.203E+02 0.735E+03   -.150E+00 0.220E+00 0.942E+00   0.217E-01 -.296E-01 -.339E-01
   0.456E+01 0.186E+01 -.765E+03   -.459E+01 -.157E+01 0.765E+03   0.122E-01 -.210E+00 0.103E+00   0.180E-01 -.813E-01 -.108E-01
   -.219E+02 0.189E+02 -.786E+03   0.218E+02 -.187E+02 0.786E+03   0.905E-01 -.221E+00 -.111E+00   0.142E-03 0.333E-01 -.371E-02
   -.295E+02 -.178E+01 -.788E+03   0.292E+02 0.154E+01 0.788E+03   0.268E+00 0.155E+00 -.284E+00   -.133E-02 0.805E-01 -.235E-01
   -.209E+02 -.164E+02 -.772E+03   0.210E+02 0.163E+02 0.772E+03   -.333E-01 0.140E+00 0.975E-01   -.523E-02 -.316E-01 -.391E-01
   -.161E+02 -.129E+01 -.780E+03   0.161E+02 0.135E+01 0.780E+03   0.221E-01 0.140E-01 -.115E-01   -.383E-02 -.814E-01 -.197E-01
   -.357E+01 0.977E+01 -.790E+03   0.359E+01 -.977E+01 0.791E+03   -.167E-02 -.335E-01 0.465E-01   -.159E-01 0.321E-01 -.171E-01
   -.655E+01 -.417E+00 -.785E+03   0.656E+01 0.328E+00 0.785E+03   0.622E-02 0.126E-01 0.489E-01   -.209E-01 0.758E-01 -.326E-01
   -.672E+01 -.873E+01 -.790E+03   0.672E+01 0.876E+01 0.790E+03   0.163E-01 0.631E-02 0.421E-01   -.225E-01 -.336E-01 -.458E-01
   -.341E+01 -.618E+00 -.796E+03   0.343E+01 0.672E+00 0.796E+03   -.537E-02 0.224E-01 0.668E-01   -.182E-01 -.745E-01 -.290E-01
   0.195E+02 0.193E+02 -.255E+04   -.195E+02 -.193E+02 0.255E+04   0.178E-01 0.223E-01 0.323E+01   -.286E-02 -.191E-01 0.279E-01
   0.414E+02 0.132E+02 -.254E+04   -.412E+02 -.132E+02 0.254E+04   -.173E+00 -.819E-02 0.321E+01   -.425E-02 0.529E-01 0.118E-01
   0.230E+02 -.200E+02 -.254E+04   -.230E+02 0.200E+02 0.254E+04   0.274E-01 -.253E-02 0.324E+01   -.882E-02 0.193E-01 -.253E-01
   0.142E+02 -.120E+02 -.255E+04   -.142E+02 0.121E+02 0.255E+04   -.237E-01 -.431E-01 0.322E+01   -.298E-02 -.556E-01 -.112E-01
   0.418E+02 0.538E+02 -.250E+04   -.421E+02 -.544E+02 0.250E+04   0.291E+00 0.580E+00 0.347E+01   0.162E-01 -.187E-01 0.271E-01
   0.184E+03 0.318E+02 -.239E+04   -.184E+03 -.316E+02 0.239E+04   -.212E+00 -.264E+00 0.399E+00   0.168E-01 0.510E-01 0.173E-01
   0.102E+03 -.409E+02 -.245E+04   -.102E+03 0.414E+02 0.245E+04   0.194E+00 -.486E+00 0.281E+01   0.167E-01 0.189E-01 -.268E-01
   0.630E+02 -.512E+02 -.253E+04   -.624E+02 0.507E+02 0.253E+04   -.690E+00 0.602E+00 0.227E+01   0.187E-01 -.516E-01 -.117E-01
   -.322E+02 0.556E+02 -.250E+04   0.325E+02 -.561E+02 0.250E+04   -.266E+00 0.513E+00 0.342E+01   0.293E-02 -.217E-01 0.213E-01
   -.160E+03 0.589E+02 -.235E+04   0.160E+03 -.589E+02 0.235E+04   0.249E+00 -.514E-01 0.462E+00   0.277E-02 0.540E-01 0.844E-02
   -.574E+02 -.474E+02 -.238E+04   0.576E+02 0.476E+02 0.238E+04   -.188E+00 -.196E+00 0.310E+01   0.706E-02 0.195E-01 -.349E-01
   -.376E+02 -.719E+02 -.249E+04   0.373E+02 0.719E+02 0.249E+04   0.333E+00 0.209E-01 0.254E+01   0.643E-02 -.570E-01 -.228E-01
   -.295E+02 0.197E+02 -.255E+04   0.295E+02 -.197E+02 0.254E+04   -.113E-01 0.815E-02 0.321E+01   -.170E-01 -.193E-01 0.192E-01
   -.634E+02 0.252E+02 -.253E+04   0.633E+02 -.253E+02 0.252E+04   0.149E+00 0.411E-01 0.324E+01   -.169E-01 0.561E-01 0.578E-02
   -.683E+02 -.197E+02 -.251E+04   0.686E+02 0.196E+02 0.250E+04   -.251E+00 0.229E-02 0.342E+01   -.194E-01 0.209E-01 -.350E-01
   -.364E+02 -.248E+02 -.254E+04   0.364E+02 0.249E+02 0.253E+04   0.361E-01 -.657E-01 0.327E+01   -.181E-01 -.569E-01 -.185E-01
   0.334E+02 0.340E+01 0.279E+02   0.561E-12 0.284E-13 0.182E-11   -.334E+02 -.341E+01 -.266E+02   -.117E-01 0.139E-01 -.126E+01

 POSITION                                       TOTAL-FORCE (eV/Angst)
      4.02002      7.02160     18.32506        -0.000288     -0.000850     -0.001585
      4.89482      6.21295     20.64310         0.004948      0.003198      0.002210
      5.13589      4.67485     20.70857        -0.003243     -0.003200      0.002212
      4.11525      2.68331     19.37734        -0.000711     -0.004922     -0.001371
      4.13558      2.98367     20.55268         0.002803      0.006337      0.005535
      5.54494      5.52037     20.41965         0.017982     -0.001920     -0.001739
      1.37275      1.37275     12.08797        -0.001286      0.021671      0.005709
      1.37275      4.11824     12.08797         0.006919     -0.021656      0.020855
      1.37275      6.86373     12.08797        -0.002381     -0.006661      0.014933
      1.37275      9.60922     12.08797        -0.013243      0.008803     -0.016525
      4.11824      1.37275     12.08797        -0.004004      0.001137      0.026451
      4.11824      4.11824     12.08797         0.000139      0.003809      0.012552
      4.11824      6.86373     12.08797         0.000416     -0.004332      0.006717
      4.11824      9.60922     12.08797        -0.001612      0.002150      0.019933
      6.86373      1.37275     12.08797        -0.003426      0.028499      0.018034
      6.86373      4.11824     12.08797        -0.001877     -0.023330      0.010530
      6.86373      6.86373     12.08797         0.001969     -0.008549      0.005330
      6.86373      9.60922     12.08797        -0.003931     -0.008459      0.000756
      9.60922      1.37275     12.08797        -0.002202      0.033252      0.001039
      9.60922      4.11824     12.08797        -0.002065     -0.020010      0.036833
      9.60922      6.86373     12.08797        -0.002636      0.050139     -0.025170
      9.60922      9.60922     12.08797         0.005330     -0.059579     -0.063644
     10.97852      0.00453     14.03167        -0.002361      0.001402     -0.001170
      0.00569      2.74597     14.05035         0.003071     -0.002068     -0.003540
      0.00157      5.48470     14.03838         0.000930     -0.001551     -0.003344
     10.98009      8.23714     14.04116         0.001735     -0.001303     -0.005527
      2.73937      0.00731     14.04125         0.000769      0.004599     -0.003278
      2.74912      2.74847     14.05199        -0.001180      0.000317      0.004901
      2.74565      5.48425     14.04490         0.000185     -0.001299     -0.001429
      2.74376      8.23593     14.03795        -0.001106     -0.003047     -0.001351
      5.49367      0.00730     14.03922        -0.001883      0.001244     -0.002286
      5.48719      2.74853     14.05449        -0.000641      0.000208     -0.002943
      5.49547      5.48195     14.03991        -0.000239      0.000750     -0.005620
      5.48988      8.23359     14.04089         0.003336     -0.001825     -0.002776
      8.23584      0.00320     14.03310         0.002251     -0.002652     -0.000430
      8.22857      2.74541     14.05075        -0.001446      0.004179      0.002507
      8.23477      5.48371     14.04191        -0.000563     -0.002575     -0.002444
      8.23350      8.23462     14.04067        -0.002117      0.002023     -0.002473
      1.37620      1.38539     16.01144        -0.002664     -0.000891     -0.004312
      1.38972      4.10835     16.02547         0.004610     -0.000936     -0.003985
      1.36558      6.86268     15.98006         0.003419      0.000332     -0.001289
      1.36810      9.61304     15.98235         0.002261     -0.000896      0.002893
      4.11340      1.38474     16.00732         0.001783      0.001480     -0.002520
      4.12787      4.12473     16.01763        -0.006018     -0.001034     -0.002314
      4.12787      6.85595     15.97252        -0.001354      0.001265     -0.001317
      4.11119      9.61646     15.97314         0.001877      0.000592      0.004310
      6.85627      1.38352     16.00903        -0.001869     -0.000133      0.001905
      6.84264      4.11352     16.03560         0.005015     -0.003503     -0.002470
      6.86181      6.84641     15.99088         0.001711      0.003996     -0.005609
      6.85983      9.60809     15.97965         0.000500      0.000473      0.001806
      9.60743      1.37125     15.98398         0.001058     -0.001940      0.004116
      9.61088      4.11778     15.98874        -0.005740     -0.000765     -0.000905
      9.60744      6.86231     15.98203        -0.001096     -0.001116      0.001056
      9.60500      9.61035     15.97897        -0.000646      0.003600      0.000610
     10.96960     10.97792     17.94475        -0.000524     -0.000583     -0.000704
     10.96036      2.74499     17.95650        -0.002139     -0.001714     -0.000658
     10.98133      5.49855     17.95329        -0.003953      0.000577     -0.003666
     10.96871      8.24086     17.93587         0.002422     -0.002367     -0.004177
      2.73498     10.96380     17.93674         0.000123     -0.002475     -0.002652
      2.68346      2.76352     18.06286        -0.000512      0.002797      0.001158
      2.74423      5.53188     17.95439        -0.001079      0.000176     -0.005542
      2.72959      8.25377     17.96372         0.000656      0.005240     -0.006330
      5.49349     10.95616     17.93647        -0.000457     -0.001940     -0.002907
      5.54021      2.73626     18.05105         0.003356      0.000174     -0.002288
      5.51208      5.52928     18.04942        -0.001691     -0.000436      0.002286
      5.48178      8.25084     17.94584         0.002761      0.002855     -0.006750
      8.23915     10.97382     17.94245        -0.000674      0.000988     -0.002438
      8.25232      2.73954     17.95790        -0.000129      0.001162      0.000050
      8.26655      5.49272     17.94465        -0.000544      0.000557     -0.003355
      8.22747      8.23755     17.93653         0.001192      0.000533     -0.002395
    total drift:                               -0.001743     -0.001189      0.014981

  FREE ENERGIE OF THE ION-ELECTRON SYSTEM (eV)
  free  energy   TOTEN  =      -369.54408122 eV

  energy  without entropy=     -369.41811696  energy(sigma->0) =     -369.50209314

 d Force = 0.3724213E-04[ 0.200E-04, 0.545E-04]  d Energy = 0.4649083E-04-0.925E-05
 d Force =-0.1992882E+01[-0.199E+01,-0.199E+01]  d Ewald  =-0.1992882E+01 0.797E-08

 Conjugate gradient step on ions:
 trial-energy change:   -0.000046  1 .order   -0.000037   -0.000055   -0.000020
  (g-gl).g = 0.172E-03      g.g   = 0.234E-03  gl.gl    = 0.489E-03
 g(Force)  = 0.234E-03   g(Stress)= 0.000E+00 ortho     =-0.685E-05
 gamma     =   0.35157
 trial     =   0.23588
 opt step  =   0.37204  (harmonic =   0.37204) maximal distance =0.00086800
 next E    =  -369.544078   (d E  =  -0.00004)

 reached required accuracy - stopping structural energy minimisation

 total charge

[...]

 magnetization (x)

# of ion       s       p       d       tot
    1       -0.002  -0.000   0.000  -0.002
    2       -0.000   0.000   0.000   0.000
    3       -0.000   0.000   0.000  -0.000
    4        0.000  -0.011   0.000  -0.010
    5       -0.000  -0.013   0.000  -0.013
    6        0.001   0.005   0.000   0.005
    7       -0.000  -0.003   0.211   0.208
    8       -0.001  -0.003   0.208   0.204
    9       -0.001  -0.003   0.212   0.207
   10       -0.000  -0.003   0.217   0.214
   11       -0.001  -0.003   0.210   0.206
   12       -0.000  -0.003   0.216   0.212
   13       -0.001  -0.004   0.211   0.207
   14       -0.001  -0.004   0.207   0.202
   15       -0.001  -0.004   0.211   0.206
   16       -0.000  -0.003   0.213   0.209
   17       -0.001  -0.003   0.216   0.212
   18       -0.001  -0.004   0.215   0.211
   19       -0.001  -0.004   0.214   0.210
   20       -0.002  -0.003   0.202   0.197
   21        0.001  -0.004   0.221   0.219
   22        0.001  -0.004   0.230   0.227
   23       -0.002  -0.006   0.304   0.297
   24       -0.002  -0.006   0.302   0.294
   25       -0.002  -0.006   0.289   0.281
   26       -0.002  -0.006   0.316   0.308
   27       -0.002  -0.006   0.298   0.290
   28       -0.002  -0.006   0.295   0.288
   29       -0.002  -0.006   0.302   0.295
   30       -0.002  -0.006   0.307   0.299
   31       -0.002  -0.006   0.298   0.291
   32       -0.002  -0.006   0.296   0.289
   33       -0.002  -0.006   0.305   0.298
   34       -0.002  -0.006   0.307   0.299
   35       -0.002  -0.006   0.308   0.300
   36       -0.002  -0.006   0.305   0.297
   37       -0.002  -0.006   0.293   0.285
   38       -0.002  -0.006   0.317   0.309
   39       -0.002  -0.006   0.262   0.255
   40       -0.002  -0.006   0.241   0.234
   41       -0.002  -0.006   0.292   0.284
   42       -0.002  -0.006   0.293   0.285
   43       -0.001  -0.005   0.272   0.266
   44       -0.001  -0.005   0.266   0.259
   45       -0.002  -0.005   0.262   0.255
   46       -0.002  -0.006   0.276   0.269
   47       -0.002  -0.006   0.259   0.252
   48       -0.002  -0.006   0.249   0.241
   49       -0.002  -0.006   0.294   0.287
   50       -0.002  -0.006   0.292   0.284
   51       -0.002  -0.006   0.296   0.288
   52       -0.002  -0.006   0.287   0.279
   53       -0.002  -0.006   0.317   0.310
   54       -0.002  -0.006   0.319   0.312
   55       -0.001  -0.003   0.207   0.203
   56       -0.000  -0.004   0.175   0.171
   57       -0.000  -0.003   0.200   0.196
   58       -0.001  -0.003   0.192   0.188
   59       -0.001  -0.003   0.191   0.187
   60       -0.003  -0.004   0.053   0.045
   61       -0.001  -0.003   0.152   0.148
   62       -0.001  -0.004   0.127   0.123
   63       -0.001  -0.003   0.191   0.187
   64       -0.003  -0.005   0.053   0.045
   65       -0.002  -0.003   0.157   0.151
   66       -0.001  -0.004   0.145   0.140
   67       -0.001  -0.003   0.207   0.203
   68       -0.001  -0.004   0.177   0.173
   69       -0.001  -0.003   0.210   0.206
   70       -0.001  -0.003   0.196   0.192
tot         -0.083  -0.316  15.367  14.968