 vasp.5.4.4.18Apr17-6-g9f103f2a35 (build Jun 11 2020 13:42:08) complex

 executed on             LinuxIFC date 2022.02.13  09:44:12

 INCAR:
 POTCAR:    PAW_PBE H 15Jun2001
 POTCAR:    PAW_PBE N 08Apr2002
 POTCAR:    PAW_PBE O 08Apr2002
 POTCAR:    PAW_PBE Pd 04Jan2005

 POTCAR:    PAW_PBE H 15Jun2001
   VRHFIN =H: ultrasoft test

   TITEL  = PAW_PBE H 15Jun2001
   POMASS =    1.000; ZVAL   =    1.000    mass and valenz
   ENMAX  =  250.000; ENMIN  =  200.000 eV

 POTCAR:    PAW_PBE N 08Apr2002
   VRHFIN =N: s2p3

   TITEL  = PAW_PBE N 08Apr2002
   POMASS =   14.001; ZVAL   =    5.000    mass and valenz
   ENMAX  =  400.000; ENMIN  =  300.000 eV

 POTCAR:    PAW_PBE O 08Apr2002
   VRHFIN =O: s2p4

   TITEL  = PAW_PBE O 08Apr2002
   POMASS =   16.000; ZVAL   =    6.000    mass and valenz
   ENMAX  =  400.000; ENMIN  =  300.000 eV

 POTCAR:    PAW_PBE Pd 04Jan2005
   VRHFIN =Pd : s1 d9

   TITEL  = PAW_PBE Pd 04Jan2005
   POMASS =  106.420; ZVAL   =   10.000    mass and valenz
   ENMAX  =  250.925; ENMIN  =  188.194 eV

 Optimization of the real space projectors (new method)

 maximal supplied QI-value         = 34.20
 optimisation between [QCUT,QGAM] = [  9.92, 20.18] = [ 27.55,114.04] Ry
 Optimized for a Real-space Cutoff    1.34 Angstroem

   l    n(q)    QCUT    max X(q) W(low)/X(q) W(high)/X(q)  e(spline)
   0      8     9.919    19.460    0.16E-03    0.20E-03    0.36E-06
   0      8     9.919    12.209    0.16E-03    0.20E-03    0.35E-06
   1      8     9.919     4.655    0.19E-03    0.46E-03    0.40E-06
 Optimization of the real space projectors (new method)

[...]

   l    n(q)    QCUT    max X(q) W(low)/X(q) W(high)/X(q)  e(spline)
   0      9    10.150    20.381    0.17E-03    0.18E-03    0.41E-06
   0      9    10.150    15.268    0.18E-03    0.20E-03    0.43E-06
   1      9    10.150     5.964    0.16E-03    0.20E-03    0.36E-06
   1      9    10.150     5.382    0.13E-03    0.16E-03    0.33E-06
 Optimization of the real space projectors (new method)

 maximal supplied QI-value         = 14.36
 optimisation between [QCUT,QGAM] = [ 10.20, 20.39] = [ 29.12,116.47] Ry
 Optimized for a Real-space Cutoff    1.55 Angstroem

   l    n(q)    QCUT    max X(q) W(low)/X(q) W(high)/X(q)  e(spline)
   2      9    10.197    59.108    0.12E-03    0.40E-04    0.11E-06
   2      9    10.197    58.101    0.12E-03    0.39E-04    0.12E-06
   0      9    10.197   102.235    0.41E-04    0.86E-05    0.83E-07
   0      9    10.197    58.388    0.37E-04    0.79E-05    0.78E-07
   1      9    10.197    22.191    0.25E-03    0.13E-03    0.84E-07
   1      9    10.197    15.590    0.21E-03    0.11E-03    0.74E-07
  PAW_PBE H 15Jun2001                   :
  PAW_PBE N 08Apr2002                   :
  PAW_PBE O 08Apr2002                   :
  PAW_PBE Pd 04Jan2005                  :

 POSCAR: H N O Pd
  positions in direct lattice
  velocities in cartesian coordinates
 exchange correlation table for  LEXCH =        8
   RHO(1)=    0.500       N(1)  =     2000
   RHO(2)=  100.500       N(2)  =     4000

 VTST: version 3.1, (03/28/14)

 CHAIN: initializing optimizer

 OPT: Using VASP QUASI-newton optimizer
 CHAIN: Read ICHAIN            0
 CHAIN: Running the NEB
 NEB:          SPRING     -5.000000
 NEB:          LCLIMB      T
 NEB:     LTANGENTOLD      F
 NEB:           LDNEB      F
 NEB:        LDNEBORG      F
 NEB:        LNEBCELL      F
 NEB:          EFIRST   -369.502093
 NEB:           ELAST   -369.134419

 POSCAR: H N O Pd
  positions in direct lattice

 POSCAR: H N O Pd
  positions in direct lattice

 ion  position               nearest neighbor table
   1  0.311  0.445  0.657-   6 1.10  61 1.96
   2  0.433  0.442  0.688-   6 0.99
   3  0.365  0.312  0.676-   6 1.07
   4  0.375  0.199  0.645-   5 1.29  64 2.01  60 2.01
   5  0.375  0.084  0.652-   4 1.29  63 2.31  59 2.31
   6  0.351  0.404  0.688-   2 0.99   3 1.07   1 1.10
   7  0.125  0.125  0.403-  10 2.75  19 2.75  11 2.75   8 2.75  23 2.75  24 2.76  27 2.76  28 2.76

   8  0.125  0.375  0.403-  20 2.75   9 2.75  12 2.75   7 2.75  24 2.75  25 2.76  29 2.76  28 2.76

[...]

  23  0.000  0.000  0.468-  26 2.74  27 2.75  39 2.75  54 2.75  35 2.75   7 2.75  51 2.75  10 2.75
                            24 2.75  19 2.75  22 2.75  42 2.77
  24  0.000  0.251  0.468-  25 2.74  39 2.74  51 2.74  28 2.75   8 2.75  23 2.75  36 2.75  20 2.75
                            52 2.75   7 2.76  19 2.76  40 2.77
  25  0.000  0.501  0.468-  24 2.74  29 2.74  37 2.74  41 2.75  52 2.75  26 2.75   9 2.75  53 2.75
                            21 2.75   8 2.76  20 2.76  40 2.78
  26  0.000  0.751  0.468-  23 2.74  30 2.74  54 2.74  38 2.75  10 2.75  25 2.75  41 2.75  22 2.75
                            53 2.75   9 2.76  21 2.76  42 2.78
  27  0.250  0.000  0.468-  31 2.74  30 2.74  23 2.75  43 2.75  28 2.75  42 2.75  39 2.75  14 2.75
                            11 2.76  10 2.76   7 2.76  46 2.76
  28  0.250  0.250  0.468-  32 2.74  29 2.74  39 2.74  24 2.75  27 2.75  43 2.75  40 2.75  44 2.75
                            12 2.76  11 2.76   8 2.76   7 2.76
  29  0.250  0.500  0.468-  28 2.74  25 2.74  30 2.75  45 2.75  33 2.75  41 2.75   8 2.76   9 2.76
                            12 2.76  13 2.76  40 2.76  44 2.76
  30  0.250  0.750  0.468-  26 2.74  27 2.74  41 2.75  45 2.75  29 2.75  34 2.75  10 2.76  14 2.76
                             9 2.76  46 2.76  13 2.76  42 2.76
  31  0.500  0.000  0.468-  27 2.74  34 2.74  35 2.74  43 2.75  32 2.75  50 2.75  47 2.75  11 2.75
                            15 2.75  14 2.75  18 2.76  46 2.76
  32  0.500  0.250  0.468-  28 2.74  33 2.74  36 2.74  31 2.75  47 2.75  43 2.75  44 2.75  48 2.75
                            12 2.76  11 2.76  16 2.76  15 2.76
  33  0.500  0.500  0.468-  32 2.74  37 2.75  45 2.75  29 2.75  34 2.75  49 2.75  16 2.75  17 2.75
                            12 2.76  13 2.76  44 2.76  48 2.76
  34  0.500  0.750  0.468-  38 2.74  31 2.74  49 2.75  30 2.75  33 2.75  45 2.75  18 2.75  14 2.75
                            17 2.76  13 2.76  46 2.76  50 2.77
  35  0.750  0.000  0.468-  38 2.74  31 2.74  47 2.75  51 2.75  23 2.75  54 2.75  15 2.75  19 2.75
                            36 2.75  18 2.75  22 2.75  50 2.77
  36  0.750  0.251  0.468-  37 2.74  51 2.74  47 2.74  32 2.74  16 2.75  20 2.75  24 2.75  35 2.75
                            52 2.76  15 2.76  48 2.76  19 2.76
  37  0.750  0.501  0.468-  36 2.74  25 2.74  33 2.75  49 2.75  21 2.75  38 2.75  53 2.75  17 2.75
                            52 2.75  20 2.76  16 2.76  48 2.78
  38  0.750  0.751  0.468-  35 2.74  49 2.74  34 2.74  54 2.74  26 2.75  37 2.75  18 2.75  53 2.75
                            22 2.75  17 2.76  21 2.76  50 2.78
  39  0.125  0.125  0.533-  42 2.73  40 2.73  51 2.74  24 2.74  28 2.74  23 2.75  27 2.75  43 2.75
                            55 2.76  56 2.76  60 2.79  59 2.80
  40  0.126  0.374  0.534-  44 2.73  39 2.73  56 2.75  28 2.75  41 2.76  52 2.76  29 2.76  57 2.76
                            60 2.76  61 2.76  24 2.77  25 2.78
  41  0.125  0.625  0.533-  53 2.74  30 2.75  25 2.75  62 2.75  45 2.75  26 2.75  29 2.75  57 2.75
                            40 2.76  58 2.76  42 2.76  61 2.79
  42  0.127  0.877  0.534-  46 2.73  59 2.73  39 2.73  27 2.75  55 2.75  58 2.76  62 2.76  41 2.76
                            30 2.76  54 2.76  23 2.77  26 2.78
  43  0.375  0.124  0.533-  46 2.74  31 2.75  27 2.75  47 2.75  44 2.75  28 2.75  32 2.75  39 2.75
                            60 2.82  63 2.82  59 2.83  64 2.83
  44  0.375  0.375  0.533-  48 2.73  40 2.73  45 2.75  43 2.75  32 2.75  28 2.75  65 2.76  33 2.76
                            29 2.76  61 2.76  60 2.82  64 2.82
  45  0.375  0.625  0.533-  44 2.75  46 2.75  30 2.75  29 2.75  62 2.75  33 2.75  41 2.75  65 2.75
                            49 2.75  34 2.75  66 2.76  61 2.77
  46  0.375  0.875  0.533-  50 2.73  42 2.73  43 2.74  45 2.75  66 2.76  34 2.76  30 2.76  27 2.76
                            31 2.76  62 2.76  59 2.80  63 2.80
  47  0.625  0.126  0.533-  48 2.73  50 2.73  51 2.74  36 2.74  32 2.75  35 2.75  43 2.75  31 2.75
                            68 2.76  67 2.76  63 2.80  64 2.80
  48  0.624  0.374  0.534-  47 2.73  44 2.73  65 2.74  68 2.74  32 2.75  36 2.76  49 2.76  52 2.76
                            33 2.76  69 2.77  64 2.77  37 2.78
  49  0.626  0.626  0.533-  38 2.74  53 2.74  37 2.75  34 2.75  65 2.75  45 2.75  33 2.75  70 2.76
                            66 2.76  48 2.76  50 2.76  69 2.76
  50  0.623  0.877  0.534-  46 2.73  47 2.73  63 2.74  31 2.75  66 2.75  67 2.75  70 2.75  49 2.76
                            54 2.76  34 2.77  35 2.77  38 2.78
  51  0.875  0.126  0.533-  39 2.74  47 2.74  36 2.74  24 2.74  52 2.75  35 2.75  23 2.75  54 2.75
                            55 2.75  67 2.75  68 2.76  56 2.76
  52  0.875  0.376  0.533-  53 2.74  51 2.75  25 2.75  37 2.75  24 2.75  36 2.76  56 2.76  69 2.76
                            68 2.76  40 2.76  48 2.76  57 2.76
  53  0.875  0.625  0.533-  52 2.74  41 2.74  49 2.74  54 2.75  25 2.75  37 2.75  26 2.75  38 2.75
                            69 2.75  70 2.75  58 2.76  57 2.76
  54  0.875  0.875  0.533-  38 2.74  26 2.74  53 2.75  23 2.75  35 2.75  51 2.75  55 2.75  67 2.75
                            70 2.75  58 2.76  42 2.76  50 2.76
  55  0.999  0.001  0.598-  67 2.71  59 2.72  56 2.73  51 2.75  58 2.75  54 2.75  42 2.75  39 2.76

[...]

  59  0.246  0.998  0.600-   5 2.31  55 2.72  42 2.73  62 2.75  60 2.76  46 2.80  39 2.80  43 2.83
                            63 2.83
  60  0.247  0.249  0.600-   4 2.01  56 2.72  61 2.75  59 2.76  40 2.76  39 2.79  64 2.82  44 2.82
                            43 2.82
  61  0.251  0.500  0.599-   1 1.96  62 2.72  65 2.74  57 2.75  60 2.75  40 2.76  44 2.76  45 2.77
                            41 2.79
  62  0.250  0.748  0.598-  61 2.72  66 2.74  41 2.75  45 2.75  59 2.75  58 2.75  42 2.76  46 2.76

  63  0.504  0.999  0.600-   5 2.31  67 2.72  50 2.74  66 2.74  64 2.77  47 2.80  46 2.80  43 2.82
                            59 2.83
  64  0.503  0.250  0.601-   4 2.01  68 2.72  65 2.76  63 2.77  48 2.77  47 2.80  60 2.82  44 2.82
                            43 2.83
  65  0.501  0.501  0.598-  66 2.72  48 2.74  61 2.74  69 2.74  49 2.75  45 2.75  44 2.76  64 2.76

[...]

  70  0.750  0.751  0.598-  58 2.74  69 2.74  66 2.75  67 2.75  54 2.75  50 2.75  53 2.75  49 2.76

  LATTYP: Found a simple tetragonal cell.
 ALAT       =    10.9820000000
 C/A-ratio  =     2.7317428519

  Lattice vectors:

 A1 = (  10.9820000000,   0.0000000000,   0.0000000000)
 A2 = (   0.0000000000,  10.9820000000,   0.0000000000)
 A3 = (   0.0000000000,   0.0000000000,  30.0000000000)

Analysis of symmetry for initial positions (statically):
 Subroutine PRICEL returns:
 Original cell was already a primitive cell.

 Routine SETGRP: Setting up the symmetry group for a
 simple tetragonal supercell.

 Subroutine GETGRP returns: Found  1 space group operations
 (whereof  1 operations were pure point group operations)
 out of a pool of 16 trial point group operations.

The static configuration has the point symmetry C_1 .

Analysis of symmetry for dynamics (positions and initial velocities):
 Subroutine PRICEL returns:
[...]
   -.297E+02 0.967E+01 -.760E+03   0.297E+02 -.964E+01 0.760E+03   -.443E-02 -.503E-01 0.138E+00   -.260E-01 0.266E-01 -.484E-02
   -.348E+02 -.180E+02 -.782E+03   0.346E+02 0.177E+02 0.782E+03   0.151E+00 0.244E+00 -.192E+00   -.218E-01 0.360E-01 0.802E-02
   -.206E+02 -.956E+01 -.785E+03   0.206E+02 0.958E+01 0.785E+03   -.367E-01 0.110E-01 0.120E+00   -.707E-02 -.253E-01 0.144E-01
   -.252E+02 0.191E+02 -.803E+03   0.250E+02 -.188E+02 0.803E+03   0.268E+00 -.257E+00 -.258E+00   -.239E-01 -.388E-01 -.104E-02
   0.898E+00 0.500E+01 -.782E+03   -.904E+00 -.500E+01 0.782E+03   0.731E-04 -.318E-01 0.576E-02   0.694E-02 0.373E-01 0.645E-02
   0.139E+01 -.986E+01 -.797E+03   -.139E+01 0.984E+01 0.797E+03   -.448E-02 -.320E-01 0.478E-01   0.120E-01 0.507E-01 0.245E-01
   0.884E+00 -.538E+01 -.805E+03   -.878E+00 0.539E+01 0.805E+03   -.969E-02 0.272E-01 0.415E-01   0.422E-02 -.315E-01 0.301E-01
   0.517E+00 0.993E+01 -.799E+03   -.512E+00 -.992E+01 0.799E+03   0.852E-03 0.433E-01 0.778E-01   -.664E-02 -.515E-01 0.450E-02
   0.453E+02 0.286E+02 -.254E+04   -.453E+02 -.286E+02 0.254E+04   0.288E-01 -.235E-01 0.318E+01   0.120E-01 -.558E-02 0.290E-01
   0.667E+02 -.555E+01 -.253E+04   -.666E+02 0.549E+01 0.253E+04   -.200E+00 -.611E-02 0.323E+01   0.209E-01 0.628E-01 0.319E-02
   0.455E+02 -.250E+02 -.255E+04   -.454E+02 0.250E+02 0.254E+04   -.609E-01 -.156E-01 0.322E+01   0.882E-02 -.864E-03 -.126E-01
   0.256E+02 0.106E+01 -.256E+04   -.256E+02 -.104E+01 0.255E+04   0.378E-01 0.516E-01 0.322E+01   0.315E-02 -.650E-01 0.180E-02
   0.120E+03 0.129E+03 -.244E+04   -.121E+03 -.130E+03 0.244E+04   0.114E+01 0.880E+00 0.355E+01   0.761E-02 0.172E-02 0.881E-02
   0.195E+03 -.521E+02 -.234E+04   -.195E+03 0.520E+02 0.234E+04   -.524E+00 0.782E-01 0.104E+01   -.140E-02 0.514E-01 -.140E-01
   0.770E+02 -.930E+02 -.244E+04   -.763E+02 0.925E+02 0.244E+04   -.648E+00 0.457E+00 0.905E+00   -.146E-01 -.938E-02 -.236E-01
   0.310E+02 0.157E+01 -.253E+04   -.310E+02 -.168E+01 0.253E+04   -.112E-01 0.157E+00 0.317E+01   0.528E-03 -.540E-01 0.171E-02
   -.122E+03 0.127E+03 -.244E+04   0.124E+03 -.128E+03 0.244E+04   -.114E+01 0.910E+00 0.353E+01   -.104E-01 -.126E-01 0.428E-02
   -.203E+03 -.651E+02 -.236E+04   0.202E+03 0.649E+02 0.236E+04   0.588E+00 0.160E+00 0.947E+00   -.212E-01 0.409E-01 -.631E-02
   -.775E+02 -.763E+02 -.245E+04   0.774E+02 0.764E+02 0.245E+04   0.946E-01 -.734E-01 0.247E+01   -.123E-01 0.198E-02 -.189E-01
   -.332E+02 0.636E+01 -.253E+04   0.332E+02 -.644E+01 0.253E+04   -.253E-02 0.112E+00 0.315E+01   -.230E-02 -.426E-01 -.890E-02
   -.433E+02 0.278E+02 -.255E+04   0.433E+02 -.277E+02 0.254E+04   -.282E-01 -.270E-01 0.319E+01   -.159E-01 -.161E-01 0.188E-01
   -.602E+02 -.794E+01 -.253E+04   0.600E+02 0.791E+01 0.253E+04   0.216E+00 -.257E-01 0.318E+01   0.482E-02 0.545E-01 0.176E-01
   -.367E+02 -.227E+02 -.255E+04   0.366E+02 0.227E+02 0.255E+04   0.532E-01 -.132E-01 0.317E+01   0.724E-02 0.788E-02 -.142E-01
   -.230E+02 0.258E+01 -.256E+04   0.230E+02 -.257E+01 0.255E+04   -.440E-01 0.507E-01 0.318E+01   -.455E-03 -.525E-01 0.529E-02
   -.215E+02 -.174E+02 0.543E+02   -.281E-12 -.493E-13 0.909E-12   0.215E+02 0.174E+02 -.547E+02   -.385E-01 -.473E-01 0.383E+00

 POSITION                                       TOTAL-FORCE (eV/Angst)
      3.41419      4.88662     19.72211         0.000732     -0.018818      0.018993
      4.75575      4.85459     20.64995         0.015902     -0.005053     -0.041076
      4.00377      3.43076     20.28613        -0.009968     -0.018345     -0.022792
      4.11723      2.19108     19.33574        -0.003615     -0.007363     -0.004612
      4.11879      0.91872     19.57156         0.004385      0.005814     -0.008812
      3.85950      4.43943     20.62780        -0.001036      0.002879     -0.000598
      1.37242      1.37243     12.08387         0.000556      0.011400      0.020124
      1.37229      4.11875     12.08334         0.007566      0.004736      0.022359
      1.37251      6.86464     12.08444        -0.004668      0.017187      0.011109
      1.37263      9.60929     12.08493         0.007025      0.000292      0.004410
      4.11821      1.37240     12.08375        -0.003166     -0.004207     -0.000396
      4.11823      4.11892     12.08325         0.000043      0.013188      0.028576
      4.11824      6.86475     12.08475        -0.003235     -0.013683      0.028949
      4.11822      9.60924     12.08517        -0.005140     -0.005481      0.022487
      6.86394      1.37242     12.08390         0.007553      0.011814      0.013234
      6.86397      4.11884     12.08357        -0.001275      0.007351      0.020502
      6.86370      6.86460     12.08478         0.010655      0.017642      0.013590
      6.86366      9.60918     12.08510         0.004495      0.003265      0.000612
      9.60913      1.37248     12.08411        -0.001241      0.013373      0.014777
      9.60904      4.11868     12.08378         0.003031      0.026782     -0.001281
      9.60900      6.86449     12.08458         0.000550      0.032464     -0.055891
      9.60907      9.60925     12.08489        -0.008476     -0.023420     -0.008670
      0.00208      0.00226     14.03524         0.000611     -0.001163     -0.001731
      0.00395      2.75441     14.03784        -0.001250     -0.000072     -0.004408
      0.00162      5.49680     14.03673         0.001826      0.001004      0.001618
      0.00111      8.24653     14.03960         0.001302     -0.000071     -0.004106
      2.74716      0.00042     14.04099        -0.001465     -0.001009      0.002651
      2.74985      2.74756     14.04310        -0.002383     -0.003225     -0.007545
      2.74413      5.48981     14.04122         0.000904     -0.001911      0.003148
      2.74348      8.23834     14.04346         0.002047     -0.002028     -0.007178
      5.49030      0.00161     14.03931         0.000448     -0.001398      0.006766
      5.48862      2.74716     14.04058        -0.000202     -0.001512      0.001239
      5.49371      5.49030     14.03986         0.000887     -0.000677      0.006128
      5.49234      8.24046     14.03949         0.001209      0.000533     -0.001553
      8.23447      0.00306     14.03604        -0.000830     -0.001380     -0.000509
      8.23367      2.75537     14.03889         0.001756     -0.003341     -0.003380
      8.23884      5.49727     14.03697         0.001613     -0.002053     -0.001588
      8.23471      8.24659     14.04433        -0.000679     -0.001735     -0.006385
      1.36782      1.37820     15.97942        -0.000350     -0.000809     -0.002422
      1.38911      4.11167     16.00868        -0.000069     -0.005485     -0.002549
      1.36958      6.86826     15.98601        -0.000607      0.004750     -0.003804
      1.39192      9.62694     16.01085        -0.000461     -0.003274      0.001100
      4.12110      1.36638     15.98818        -0.000331     -0.004842     -0.002643
      4.12164      4.11678     15.99758        -0.001966     -0.006765     -0.002364
      4.11926      6.86283     15.98501        -0.000868     -0.001251     -0.002173
      4.12009      9.60926     16.00201        -0.004072     -0.005589      0.000538
      6.86882      1.38027     15.98191         0.002365      0.000717      0.000711
      6.85319      4.11067     16.00661        -0.001089     -0.005544     -0.001035
      6.87010      6.87037     15.98218         0.002728      0.001266     -0.000008
      6.84637      9.63056     16.01102        -0.002949      0.001316      0.000047
      9.60953      1.38326     15.97600         0.001415     -0.002063     -0.001142
      9.61346      4.12947     15.98892        -0.001773      0.001063     -0.005013
      9.61318      6.86759     15.98716        -0.000170      0.003387     -0.002635
      9.61072      9.61449     15.98293        -0.000562      0.000211     -0.005337
     10.96631      0.01380     17.93940         0.000109     -0.004889      0.003845
     10.97643      2.74800     17.94713        -0.001006     -0.002451     -0.006768
      0.01082      5.50197     17.95202        -0.001201     -0.000672     -0.005812
     10.97946      8.24452     17.94377        -0.000460     -0.001833     -0.006319
      2.70653     10.95892     18.00156        -0.002231     -0.000388      0.001168
      2.71148      2.73869     18.00758         0.001719     -0.001704     -0.004565
      2.76031      5.48937     17.97198        -0.004923     -0.001086     -0.005034
      2.74766      8.21023     17.94967         0.000221     -0.001810      0.000932
      5.53390     10.96630     18.00424        -0.003379     -0.002667      0.001282
      5.52658      2.75058     18.02429        -0.000379     -0.001508     -0.000599
      5.50204      5.50634     17.93699        -0.003629     -0.001596     -0.003446
      5.49236      8.22352     17.95015        -0.001130     -0.001411     -0.003995
      8.25650      0.01383     17.94243        -0.002815     -0.002819     -0.001746
      8.24279      2.74931     17.94355         0.001864     -0.000453      0.006682
      8.24552      5.50234     17.94978        -0.002077     -0.003594     -0.006567
      8.24048      8.24288     17.93950         0.001609      0.000014      0.000906
    total drift:                                0.004928      0.023712      0.036590

  FREE ENERGIE OF THE ION-ELECTRON SYSTEM (eV)
  free  energy   TOTEN  =      -368.74302775 eV

  energy  without entropy=     -368.61056468  energy(sigma->0) =     -368.69887339

 d Force = 0.1280193E-03[ 0.109E-03, 0.147E-03]  d Energy = 0.1396216E-03-0.116E-04
 d Force =-0.3707330E+01[-0.371E+01,-0.371E+01]  d Ewald  =-0.3707330E+01 0.844E-08

 NEB: the previous image is higher in energy: F
 NEB: the next image is higher in energy    : F
 NEB: image is at an extrema
 NEB: diff energy (min, max):     0.459672    0.522291

 NEB: Tangent
      0.26517     -0.67961      0.42457
     -0.01415      0.02132      0.04061
     -0.04001     -0.45542     -0.06873
      0.00099      0.01690     -0.00323
     -0.00135     -0.02064     -0.02238
     -0.09145     -0.07977      0.21000
      0.00001      0.00003      0.00025
     -0.00002     -0.00005      0.00018
     -0.00004     -0.00000      0.00008
     -0.00001      0.00007      0.00016
      0.00001      0.00003      0.00028
      0.00002     -0.00006      0.00018
      0.00002      0.00000      0.00001
      0.00001      0.00009      0.00014
     -0.00003      0.00004      0.00028
     -0.00001     -0.00004      0.00024
      0.00003     -0.00001      0.00014
      0.00000      0.00006      0.00018
     -0.00002      0.00003      0.00025
     -0.00004     -0.00002      0.00023
     -0.00003     -0.00001      0.00017
     -0.00002      0.00005      0.00018
     -0.00044      0.00327      0.00241
      0.00052      0.00409      0.00218
     -0.00149      0.00329     -0.00057
     -0.00248      0.00497     -0.00149
      0.00021      0.00815     -0.00222
     -0.00038      0.00500     -0.00256
     -0.00121      0.00618     -0.00220
     -0.00124      0.00898     -0.00213
      0.00007      0.00410      0.00158
      0.00081      0.00337      0.00072
      0.00138      0.00522     -0.00101
      0.00132      0.00655     -0.00121
     -0.00030      0.00161     -0.00010
      0.00083      0.00205     -0.00098
      0.00061      0.00282     -0.00025
      0.00004      0.00381     -0.00046
     -0.00168      0.00914     -0.00045
     -0.00032      0.00888     -0.00025
     -0.00435      0.01259     -0.00825
     -0.00079      0.01547      0.00003
     -0.00036      0.01151     -0.00149
     -0.00052      0.01272     -0.00647
     -0.00034      0.01650     -0.00959
      0.00049      0.01615     -0.00025
      0.00229      0.00404     -0.00001
      0.00315      0.00501     -0.00246
      0.00214      0.01096     -0.00259
     -0.00278      0.00869      0.00609
     -0.00068      0.00469      0.00182
      0.00009      0.00426      0.00126
     -0.00058      0.00427      0.00061
     -0.00226      0.00509      0.00145
     -0.00087      0.00698      0.00125
     -0.00042      0.00876      0.00181
      0.00532      0.01026     -0.00111
      0.00035      0.00553     -0.00032
     -0.00269      0.02978      0.00783
     -0.00399      0.03918     -0.01217
      0.00728      0.03569     -0.02200
     -0.00486      0.02329     -0.02935
     -0.00095      0.02031      0.00985
      0.00676      0.02995     -0.01467
     -0.00735      0.01606     -0.02197
     -0.00714      0.00979      0.00204
     -0.00147      0.00583      0.00318
      0.00223      0.00581      0.00175
     -0.00155      0.00758      0.00038
     -0.00130      0.00455      0.00095

 NEB: forces: par spring, perp REAL, dneb     5.767355    0.065336    0.000000
 NEB: distance to prev, next image, angle between     2.235495    1.082024   93.050540
 NEB: projections on to tangent (spring, REAL)    -5.767355    0.028614

 stress matrix after NEB project (eV)
    -37.94315      0.01198     -0.03044
      0.01198    -38.31005     -0.73042
     -0.03044     -0.73042     -6.45256
  FORCES: max atom, RMS     0.046928    0.008525
  FORCE total and by dimension    0.071327    0.043400
  Stress total and by dimension   54.314338   38.310051
 Quasi-Newton relaxation of ions (Broydens 2nd method)
  g(Force)  = 0.681E-03   g(Stress)= 0.000E+00

 retain information from N=  1 steps
 eigenvalues of (default step * inverse Hessian matrix)
  average eigenvalue of G=   0.9272
 eigenvalue spectrum of G is  0.9272

 reached required accuracy - stopping structural energy minimisation

 total charge

[...]

 magnetization (x)

# of ion       s       p       d       tot
    1       -0.000  -0.000   0.000  -0.000
    2       -0.000  -0.000   0.000  -0.000
    3       -0.000  -0.000   0.000  -0.000
    4       -0.000  -0.015   0.000  -0.015
    5        0.000  -0.008   0.000  -0.007
    6       -0.000  -0.001   0.000  -0.001
    7       -0.001  -0.003   0.209   0.205
    8       -0.001  -0.003   0.213   0.209
    9       -0.001  -0.003   0.216   0.212
   10       -0.001  -0.003   0.218   0.214
   11        0.000  -0.003   0.212   0.209
   12       -0.001  -0.003   0.216   0.212
   13       -0.001  -0.004   0.201   0.196
   14       -0.001  -0.003   0.213   0.209
   15       -0.001  -0.003   0.212   0.208
   16       -0.001  -0.003   0.213   0.209
   17       -0.001  -0.003   0.215   0.211
   18       -0.001  -0.004   0.221   0.216
   19       -0.001  -0.004   0.206   0.201
   20       -0.001  -0.003   0.218   0.214
   21        0.002  -0.003   0.224   0.223
   22       -0.001  -0.003   0.226   0.222
   23       -0.002  -0.006   0.304   0.296
   24       -0.002  -0.006   0.304   0.297
   25       -0.002  -0.006   0.295   0.288
   26       -0.002  -0.006   0.304   0.297
   27       -0.002  -0.006   0.306   0.298
   28       -0.002  -0.006   0.301   0.294
   29       -0.002  -0.006   0.304   0.296
   30       -0.002  -0.006   0.305   0.297
   31       -0.002  -0.006   0.307   0.300
   32       -0.002  -0.006   0.302   0.294
   33       -0.002  -0.006   0.298   0.291
   34       -0.002  -0.006   0.307   0.300
   35       -0.002  -0.006   0.309   0.301
   36       -0.002  -0.006   0.305   0.298
   37       -0.002  -0.006   0.295   0.288
   38       -0.002  -0.006   0.302   0.294
   39       -0.002  -0.006   0.285   0.278
   40       -0.002  -0.006   0.242   0.235
   41       -0.002  -0.006   0.293   0.286
   42       -0.002  -0.006   0.268   0.260
   43       -0.001  -0.005   0.279   0.273
   44       -0.001  -0.005   0.260   0.254
   45       -0.002  -0.006   0.280   0.272
   46       -0.001  -0.005   0.293   0.286
   47       -0.002  -0.006   0.290   0.282
   48       -0.002  -0.006   0.244   0.236
   49       -0.002  -0.006   0.298   0.290
   50       -0.002  -0.006   0.271   0.263
   51       -0.002  -0.006   0.293   0.285
   52       -0.002  -0.006   0.291   0.284
   53       -0.001  -0.006   0.317   0.310
   54       -0.002  -0.006   0.303   0.296
   55       -0.001  -0.003   0.200   0.196
   56       -0.001  -0.004   0.180   0.176
   57       -0.001  -0.003   0.191   0.188
   58       -0.001  -0.003   0.201   0.197
   59       -0.002  -0.003   0.137   0.132
   60       -0.003  -0.005   0.053   0.045
   61       -0.001  -0.004   0.125   0.119
   62       -0.001  -0.003   0.188   0.184
   63       -0.002  -0.003   0.138   0.133
   64       -0.003  -0.005   0.053   0.045
   65       -0.001  -0.003   0.167   0.163
   66       -0.000  -0.003   0.193   0.190
   67       -0.001  -0.003   0.200   0.197
   68       -0.001  -0.004   0.180   0.175
   69       -0.001  -0.003   0.195   0.191
   70       -0.001  -0.003   0.201   0.197
tot         -0.082  -0.317  15.390  14.992