 vasp.5.4.4.18Apr17-6-g9f103f2a35 (build May 01 2020 14:57:12) complex

 executed on             LinuxIFC date 2021.10.17  13:35:06

 INCAR:
 POTCAR:    PAW_PBE Pd 04Jan2005
 POTCAR:    PAW_PBE N 08Apr2002
 POTCAR:    PAW_PBE O 08Apr2002
 POTCAR:    PAW_PBE H 15Jun2001

 POTCAR:    PAW_PBE Pd 04Jan2005
   VRHFIN =Pd : s1 d9

   TITEL  = PAW_PBE Pd 04Jan2005
   POMASS =  106.420; ZVAL   =   10.000    mass and valenz
   ENMAX  =  250.925; ENMIN  =  188.194 eV

 POTCAR:    PAW_PBE N 08Apr2002
   VRHFIN =N: s2p3

   TITEL  = PAW_PBE N 08Apr2002
   POMASS =   14.001; ZVAL   =    5.000    mass and valenz
   ENMAX  =  400.000; ENMIN  =  300.000 eV

 POTCAR:    PAW_PBE O 08Apr2002
   VRHFIN =O: s2p4

   TITEL  = PAW_PBE O 08Apr2002
   POMASS =   16.000; ZVAL   =    6.000    mass and valenz
   ENMAX  =  400.000; ENMIN  =  300.000 eV

 POTCAR:    PAW_PBE H 15Jun2001
   VRHFIN =H: ultrasoft test

   TITEL  = PAW_PBE H 15Jun2001
   POMASS =    1.000; ZVAL   =    1.000    mass and valenz
   ENMAX  =  250.000; ENMIN  =  200.000 eV

 Optimization of the real space projectors (new method)

 maximal supplied QI-value         = 14.36
 optimisation between [QCUT,QGAM] = [ 10.20, 20.39] = [ 29.12,116.47] Ry
 Optimized for a Real-space Cutoff    1.55 Angstroem

   l    n(q)    QCUT    max X(q) W(low)/X(q) W(high)/X(q)  e(spline)
   2      9    10.197    59.108    0.12E-03    0.40E-04    0.11E-06
   2      9    10.197    58.101    0.12E-03    0.39E-04    0.12E-06
   0      9    10.197   102.235    0.41E-04    0.86E-05    0.83E-07
   0      9    10.197    58.388    0.37E-04    0.79E-05    0.78E-07
   1      9    10.197    22.191    0.25E-03    0.13E-03    0.84E-07
   1      9    10.197    15.590    0.21E-03    0.11E-03    0.74E-07
 Optimization of the real space projectors (new method)

[...]

   l    n(q)    QCUT    max X(q) W(low)/X(q) W(high)/X(q)  e(spline)
   0      9    10.150    20.381    0.17E-03    0.18E-03    0.41E-06
   0      9    10.150    15.268    0.18E-03    0.20E-03    0.43E-06
   1      9    10.150     5.964    0.16E-03    0.20E-03    0.36E-06
   1      9    10.150     5.382    0.13E-03    0.16E-03    0.33E-06
 Optimization of the real space projectors (new method)

 maximal supplied QI-value         = 34.20
 optimisation between [QCUT,QGAM] = [  9.92, 20.18] = [ 27.55,114.04] Ry
 Optimized for a Real-space Cutoff    1.34 Angstroem

   l    n(q)    QCUT    max X(q) W(low)/X(q) W(high)/X(q)  e(spline)
   0      8     9.919    19.460    0.16E-03    0.20E-03    0.36E-06
   0      8     9.919    12.209    0.16E-03    0.20E-03    0.35E-06
   1      8     9.919     4.655    0.19E-03    0.46E-03    0.40E-06
  PAW_PBE Pd 04Jan2005                  :
  PAW_PBE N 08Apr2002                   :
  PAW_PBE O 08Apr2002                   :
  PAW_PBE H 15Jun2001                   :

 POSCAR: Pd N O H
  positions in direct lattice
  velocities in cartesian coordinates
 exchange correlation table for  LEXCH =        8
   RHO(1)=    0.500       N(1)  =     2000
   RHO(2)=  100.500       N(2)  =     4000

 ion  position               nearest neighbor table
   1  0.125  0.125  0.403-   2 2.75   5 2.75   4 2.75  13 2.75  18 2.75  21 2.75  17 2.75  22 2.76

   2  0.125  0.375  0.403-   1 2.75   3 2.75   6 2.75  14 2.75  18 2.75  19 2.76  23 2.76  22 2.76

[...]

  17  0.000  0.000  0.468-  18 2.74  21 2.74  45 2.74  36 2.75  48 2.75  29 2.75  20 2.75   1 2.75
                            13 2.76   4 2.76  16 2.76  33 2.78
  18  0.000  0.250  0.468-  17 2.74  34 2.74  22 2.74  46 2.75   1 2.75  45 2.75  30 2.75  13 2.75
                             2 2.75  14 2.75  19 2.75  33 2.77
  19  0.000  0.500  0.468-  20 2.74  34 2.74  23 2.74  46 2.75  47 2.75   3 2.75  31 2.75  15 2.75
                            18 2.75   2 2.76  14 2.76  35 2.76
  20  1.000  0.750  0.468-  19 2.74  24 2.74  32 2.74  48 2.75  36 2.75  17 2.75  47 2.75  15 2.75
                            16 2.75   3 2.75   4 2.75  35 2.79
  21  0.250  0.000  0.468-  17 2.74  22 2.74  40 2.75  36 2.75  24 2.75  25 2.75   1 2.75   4 2.75
                             5 2.76   8 2.76  37 2.76  33 2.77
  22  0.250  0.250  0.468-  38 2.74  21 2.74  26 2.74  18 2.74  23 2.74  34 2.75  33 2.75   5 2.75
                             1 2.76  37 2.76   6 2.76   2 2.76
  23  0.250  0.500  0.468-  27 2.74  24 2.74  19 2.74  22 2.74  38 2.75  34 2.75  39 2.75   6 2.75
                            35 2.75   7 2.76   2 2.76   3 2.76
  24  0.250  0.749  0.468-  23 2.74  20 2.74  40 2.74  36 2.75   3 2.75  21 2.75  39 2.75  28 2.75
                             7 2.75   4 2.76   8 2.76  35 2.76
  25  0.500  0.000  0.468-  29 2.74  26 2.74  40 2.75  44 2.75  28 2.75  21 2.75   9 2.75  12 2.75
                            37 2.75   5 2.76   8 2.76  41 2.77
  26  0.500  0.250  0.468-  25 2.74  22 2.74  38 2.74  30 2.74  27 2.74  42 2.75   5 2.75  41 2.75
                             9 2.75   6 2.75  10 2.75  37 2.76
  27  0.500  0.500  0.468-  23 2.74  28 2.74  31 2.74  26 2.74  38 2.75  42 2.75  39 2.75   6 2.75
                            43 2.75   7 2.75  10 2.75  11 2.76
  28  0.500  0.750  0.468-  32 2.74  27 2.74  40 2.74  44 2.75  11 2.75  25 2.75  24 2.75  39 2.75
                            12 2.75   7 2.76   8 2.76  43 2.76
  29  0.750  0.000  0.468-  30 2.74  25 2.74  45 2.74  44 2.75  48 2.75  32 2.75  17 2.75   9 2.76
                            13 2.76  12 2.76  16 2.76  41 2.78
  30  0.750  0.250  0.468-  29 2.74  42 2.74  26 2.74  46 2.75   9 2.75  18 2.75  45 2.75  13 2.75
                            10 2.75  14 2.75  31 2.76  41 2.77
  31  0.750  0.501  0.468-  32 2.74  42 2.74  27 2.74  46 2.75  47 2.75  11 2.75  19 2.75  15 2.75
                            10 2.76  30 2.76  14 2.76  43 2.76
  32  0.750  0.750  0.468-  31 2.74  28 2.74  20 2.74  48 2.75  44 2.75  29 2.75  47 2.75  16 2.75
                            15 2.75  12 2.76  11 2.76  43 2.79
  33  0.127  0.126  0.534-  54 2.72  37 2.73  34 2.73  53 2.75  22 2.75  50 2.75  49 2.76  36 2.76
                            45 2.76  21 2.77  18 2.77  17 2.78
  34  0.124  0.375  0.533-  35 2.73  33 2.73  46 2.74  19 2.74  18 2.74  22 2.75  23 2.75  38 2.76
                            51 2.76  50 2.77  54 2.79  55 2.80
  35  0.127  0.623  0.534-  34 2.73  39 2.73  55 2.73  56 2.74  51 2.75  23 2.75  52 2.76  47 2.76
                            36 2.76  19 2.76  24 2.76  20 2.79
  36  0.125  0.875  0.533-  48 2.74  17 2.75  20 2.75  24 2.75  40 2.75  21 2.75  53 2.75  56 2.75
                            49 2.76  52 2.76  33 2.76  35 2.76
  37  0.375  0.125  0.533-  41 2.73  33 2.73  38 2.74  40 2.75  57 2.75  25 2.75  53 2.76  22 2.76
                            21 2.76  26 2.76  58 2.80  54 2.80
  38  0.375  0.374  0.533-  22 2.74  37 2.74  26 2.74  23 2.75  27 2.75  39 2.75  42 2.75  34 2.76
                            58 2.84  54 2.84  55 2.84  59 2.84
  39  0.375  0.625  0.533-  43 2.73  35 2.73  40 2.74  38 2.75  27 2.75  23 2.75  24 2.75  28 2.75
                            56 2.75  60 2.76  59 2.81  55 2.81
  40  0.375  0.875  0.533-  28 2.74  24 2.74  39 2.74  37 2.75  25 2.75  21 2.75  44 2.75  36 2.75
                            53 2.75  57 2.76  56 2.76  60 2.76
  41  0.624  0.126  0.534-  58 2.72  37 2.73  42 2.73  57 2.75  62 2.75  26 2.75  61 2.76  45 2.76
                            44 2.76  25 2.77  30 2.77  29 2.78
  42  0.626  0.375  0.533-  43 2.73  41 2.73  46 2.74  31 2.74  30 2.74  27 2.75  26 2.75  38 2.75
                            63 2.76  62 2.77  58 2.79  59 2.80
  43  0.623  0.623  0.534-  39 2.73  42 2.73  59 2.74  60 2.75  63 2.75  27 2.75  64 2.76  44 2.76
                            31 2.76  47 2.76  28 2.76  32 2.79
  44  0.625  0.875  0.533-  48 2.74  29 2.75  32 2.75  40 2.75  28 2.75  25 2.75  57 2.75  64 2.76
                            60 2.76  61 2.76  41 2.76  43 2.76
  45  0.875  0.125  0.533-  29 2.74  17 2.74  48 2.75  46 2.75  50 2.75  18 2.75  30 2.75  62 2.75
                            61 2.76  49 2.76  33 2.76  41 2.76
  46  0.875  0.375  0.533-  34 2.74  42 2.74  47 2.74  31 2.75  19 2.75  30 2.75  45 2.75  18 2.75
                            62 2.75  50 2.75  51 2.76  63 2.76
  47  0.875  0.625  0.533-  46 2.74  48 2.74  19 2.75  31 2.75  32 2.75  20 2.75  64 2.75  52 2.76
                            51 2.76  63 2.76  35 2.76  43 2.76
  48  0.875  0.875  0.533-  36 2.74  47 2.74  44 2.74  45 2.75  32 2.75  20 2.75  17 2.75  29 2.75
                            64 2.75  61 2.75  49 2.76  52 2.76
  49  1.000  1.000  0.598-  61 2.74  52 2.74  50 2.75  53 2.75  48 2.76  36 2.76  33 2.76  45 2.76

[...]

  54  0.245  0.247  0.600-  66 2.18  50 2.71  33 2.72  53 2.74  34 2.79  55 2.79  37 2.80  38 2.84
                            58 2.86
  55  0.246  0.501  0.600-  65 2.04  51 2.71  35 2.73  56 2.74  54 2.79  34 2.80  39 2.81  59 2.84
                            38 2.84
  56  0.250  0.751  0.598-  53 2.72  55 2.74  60 2.74  35 2.74  52 2.75  36 2.75  39 2.75  40 2.76

[...]

  58  0.505  0.248  0.600-  66 2.18  62 2.71  41 2.72  57 2.74  42 2.79  59 2.79  37 2.80  38 2.84
                            54 2.86
  59  0.504  0.502  0.600-  65 2.04  63 2.71  43 2.74  60 2.74  58 2.79  42 2.80  39 2.81  55 2.84
                            38 2.84
  60  0.500  0.751  0.598-  57 2.72  59 2.74  56 2.74  43 2.75  64 2.75  44 2.76  40 2.76  39 2.76

[...]

  65  0.375  0.440  0.644-  67 1.03  66 1.37  55 2.04  59 2.04
  66  0.375  0.316  0.649-  65 1.37  54 2.18  58 2.18
  67  0.375  0.477  0.676-  65 1.03

  LATTYP: Found a simple tetragonal cell.
 ALAT       =    10.9820000000
 C/A-ratio  =     2.7317428519

  Lattice vectors:

 A1 = (  10.9820000000,   0.0000000000,   0.0000000000)
 A2 = (   0.0000000000,  10.9820000000,   0.0000000000)
 A3 = (   0.0000000000,   0.0000000000,  30.0000000000)

Analysis of symmetry for initial positions (statically):
 Subroutine PRICEL returns:
 Original cell was already a primitive cell.

 Routine SETGRP: Setting up the symmetry group for a
 simple tetragonal supercell.

 Subroutine GETGRP returns: Found  1 space group operations
 (whereof  1 operations were pure point group operations)
 out of a pool of 16 trial point group operations.

The static configuration has the point symmetry C_1 .

Analysis of symmetry for dynamics (positions and initial velocities):
 Subroutine PRICEL returns:
 Original cell was already a primitive cell.

[...]

The dynamic configuration has the point symmetry C_1 .

Analysis of constrained symmetry for selective dynamics:
 Subroutine PRICEL returns:
 Original cell was already a primitive cell.

[...]

The constrained configuration has the point symmetry C_1 .

Analysis of structural, dynamic, and magnetic symmetry:
 Subroutine PRICEL returns:
 Original cell was already a primitive cell.

 Routine SETGRP: Setting up the symmetry group for a
 simple tetragonal supercell.

 Subroutine GETGRP returns: Found  1 space group operations
 (whereof  1 operations were pure point group operations)
 out of a pool of 16 trial point group operations.

The magnetic configuration has the point symmetry C_1 .

 Subroutine INISYM returns: Found  1 space group operations
 (whereof  1 operations are pure point group operations),
[...]
   -.469E-01 -.947E+00 0.266E+04   0.497E-01 0.919E+00 -.266E+04   0.159E-02 0.267E-01 -.323E+01   -.345E-02 0.122E-01 -.202E-01
   -.190E-01 -.178E+01 0.266E+04   0.217E-01 0.176E+01 -.266E+04   0.131E-02 -.559E-02 -.330E+01   -.304E-02 0.405E-01 0.195E-02
   -.243E-01 -.985E+00 0.266E+04   0.240E-01 0.976E+00 -.266E+04   0.256E-02 0.492E-01 -.318E+01   -.951E-03 -.988E-02 0.192E-01
   0.171E+01 0.344E+01 0.933E+03   -.173E+01 -.341E+01 -.933E+03   0.130E-01 0.142E-01 -.883E-01   0.798E-02 -.487E-01 0.682E-02
   0.437E+01 0.477E+01 0.948E+03   -.440E+01 -.478E+01 -.948E+03   0.218E-01 0.444E-01 0.296E-01   0.102E-01 -.342E-01 -.199E-02
   0.535E+01 -.539E+01 0.945E+03   -.533E+01 0.536E+01 -.945E+03   -.195E-01 -.246E-01 -.548E-01   0.555E-02 0.482E-01 0.309E-02
   0.131E+01 -.230E+01 0.936E+03   -.137E+01 0.234E+01 -.937E+03   0.507E-01 -.736E-01 -.248E-02   0.111E-02 0.288E-01 0.572E-02
   0.355E+01 0.441E+01 0.943E+03   -.359E+01 -.440E+01 -.943E+03   0.270E-01 0.372E-01 -.444E-02   0.102E-01 -.372E-01 0.125E-01
   0.482E+01 0.700E+01 0.954E+03   -.484E+01 -.696E+01 -.955E+03   0.114E-01 -.505E-02 -.652E-01   0.127E-01 -.333E-01 0.710E-02
   0.536E+01 -.658E+01 0.953E+03   -.538E+01 0.654E+01 -.953E+03   0.119E-01 -.305E-02 -.887E-01   0.931E-02 0.431E-01 0.186E-01
   0.388E+01 -.488E+01 0.944E+03   -.391E+01 0.487E+01 -.944E+03   0.246E-01 -.225E-01 -.577E-02   0.721E-02 0.324E-01 0.780E-02
   -.349E+01 0.444E+01 0.943E+03   0.353E+01 -.444E+01 -.943E+03   -.305E-01 0.362E-01 -.378E-02   -.955E-02 -.405E-01 0.137E-01
   -.488E+01 0.699E+01 0.954E+03   0.490E+01 -.695E+01 -.954E+03   -.104E-01 -.602E-02 -.719E-01   -.118E-01 -.322E-01 0.131E-01
   -.546E+01 -.655E+01 0.954E+03   0.548E+01 0.651E+01 -.954E+03   -.102E-01 -.497E-02 -.886E-01   -.768E-02 0.438E-01 0.166E-01
   -.398E+01 -.489E+01 0.944E+03   0.401E+01 0.488E+01 -.944E+03   -.234E-01 -.218E-01 -.103E-01   -.724E-02 0.313E-01 0.120E-01
   -.173E+01 0.345E+01 0.933E+03   0.175E+01 -.342E+01 -.933E+03   -.128E-01 0.135E-01 -.868E-01   -.118E-01 -.466E-01 0.557E-02
   -.429E+01 0.485E+01 0.948E+03   0.433E+01 -.486E+01 -.949E+03   -.232E-01 0.404E-01 0.341E-01   -.125E-01 -.320E-01 -.418E-02
   -.523E+01 -.547E+01 0.945E+03   0.522E+01 0.544E+01 -.945E+03   0.178E-01 -.240E-01 -.514E-01   -.875E-02 0.508E-01 -.105E-02
   -.120E+01 -.230E+01 0.936E+03   0.126E+01 0.234E+01 -.936E+03   -.513E-01 -.722E-01 0.136E-02   -.755E-02 0.267E-01 0.734E-04
   0.217E+02 0.236E+02 -.835E+03   -.215E+02 -.232E+02 0.836E+03   -.291E+00 -.356E+00 -.363E+00   0.217E-01 -.355E-01 -.121E-03
   0.206E+02 0.105E+00 -.796E+03   -.206E+02 -.794E-01 0.796E+03   0.356E-01 -.370E-01 0.186E+00   0.235E-01 0.128E-01 0.228E-01
   0.223E+02 -.233E+02 -.836E+03   -.221E+02 0.229E+02 0.836E+03   -.242E+00 0.380E+00 -.348E+00   0.156E-01 0.382E-01 0.116E-01
   0.115E+02 -.283E+00 -.831E+03   -.115E+02 0.277E+00 0.831E+03   0.114E-02 0.188E-01 0.762E-01   0.152E-01 -.994E-02 -.123E-01
   -.956E-01 0.232E+02 -.810E+03   0.999E-01 -.232E+02 0.810E+03   0.139E-02 0.816E-01 0.224E+00   -.497E-02 -.343E-01 0.849E-02
   -.403E-01 0.305E-01 -.762E+03   0.453E-01 -.129E+00 0.761E+03   -.164E-02 0.996E-01 0.114E+01   -.411E-02 0.299E-02 0.282E-01
   -.457E-01 -.222E+02 -.805E+03   0.489E-01 0.224E+02 0.805E+03   -.128E-02 -.163E+00 0.376E+00   -.369E-02 0.392E-01 0.707E-02
   -.174E-01 -.864E+00 -.814E+03   0.158E-01 0.878E+00 0.814E+03   -.148E-02 -.422E-02 0.305E-01   0.130E-02 -.938E-02 -.153E-01
   -.217E+02 0.234E+02 -.835E+03   0.215E+02 -.230E+02 0.835E+03   0.289E+00 -.352E+00 -.355E+00   -.244E-01 -.431E-01 0.128E-02
   -.206E+02 0.541E-01 -.796E+03   0.206E+02 -.289E-01 0.796E+03   -.350E-01 -.374E-01 0.185E+00   -.211E-01 0.117E-01 0.223E-01
   -.224E+02 -.232E+02 -.837E+03   0.221E+02 0.228E+02 0.837E+03   0.242E+00 0.378E+00 -.352E+00   -.159E-01 0.427E-01 0.604E-02
   -.115E+02 -.186E+00 -.831E+03   0.115E+02 0.186E+00 0.831E+03   -.367E-02 0.162E-01 0.732E-01   -.140E-01 -.170E-01 -.189E-01
   0.130E+00 0.126E+02 -.829E+03   -.127E+00 -.126E+02 0.829E+03   -.210E-02 0.362E-01 0.672E-01   -.327E-02 -.455E-01 -.627E-02
   0.306E-01 -.599E+00 -.813E+03   -.355E-01 0.607E+00 0.813E+03   0.114E-02 -.244E-01 0.851E-03   0.487E-02 0.178E-01 0.147E-01
   0.138E+00 -.122E+02 -.833E+03   -.136E+00 0.122E+02 0.833E+03   -.163E-02 -.401E-02 0.374E-01   -.290E-02 0.471E-01 -.424E-03
   0.595E-01 -.512E-01 -.838E+03   -.551E-01 0.593E-01 0.838E+03   -.845E-03 0.571E-02 0.679E-01   -.504E-02 -.143E-01 -.207E-01
   0.139E+02 0.145E+02 -.259E+04   -.140E+02 -.145E+02 0.258E+04   0.778E-01 0.567E-01 0.322E+01   0.808E-02 -.194E-01 -.174E-01
   0.383E+02 0.210E+02 -.257E+04   -.383E+02 -.210E+02 0.257E+04   0.160E-02 0.602E-02 0.321E+01   0.247E-01 -.259E-02 0.180E-01
   0.424E+02 -.208E+02 -.257E+04   -.423E+02 0.208E+02 0.257E+04   -.140E+00 -.201E-01 0.324E+01   0.120E-01 0.269E-01 0.110E-01
   0.145E+02 -.150E+02 -.259E+04   -.146E+02 0.150E+02 0.259E+04   0.682E-01 -.384E-01 0.324E+01   0.120E-01 0.749E-02 -.146E-01
   0.208E+02 0.386E+02 -.257E+04   -.209E+02 -.387E+02 0.257E+04   0.659E-02 0.115E+00 0.325E+01   0.421E-02 -.572E-02 -.191E-01
   0.126E+03 0.109E+03 -.246E+04   -.127E+03 -.110E+03 0.245E+04   0.967E+00 0.733E+00 0.289E+01   0.127E-01 -.518E-02 0.151E-01
   0.147E+03 -.110E+03 -.245E+04   -.146E+03 0.110E+03 0.245E+04   -.563E+00 0.457E-01 0.654E+00   0.380E-02 0.132E-01 0.282E-02
   0.229E+02 -.437E+02 -.257E+04   -.229E+02 0.438E+02 0.257E+04   0.243E-01 -.685E-01 0.316E+01   0.945E-02 0.129E-01 -.798E-02
   -.210E+02 0.384E+02 -.257E+04   0.210E+02 -.385E+02 0.257E+04   -.937E-02 0.116E+00 0.325E+01   -.139E-01 -.207E-01 -.195E-01
   -.127E+03 0.109E+03 -.246E+04   0.127E+03 -.110E+03 0.245E+04   -.969E+00 0.726E+00 0.289E+01   -.166E-01 -.972E-02 0.125E-01
   -.147E+03 -.110E+03 -.245E+04   0.146E+03 0.110E+03 0.245E+04   0.564E+00 0.458E-01 0.661E+00   -.917E-02 0.163E-01 0.440E-02
   -.229E+02 -.435E+02 -.257E+04   0.230E+02 0.436E+02 0.257E+04   -.247E-01 -.691E-01 0.316E+01   -.987E-02 0.359E-02 -.231E-01
   -.138E+02 0.144E+02 -.259E+04   0.138E+02 -.144E+02 0.258E+04   -.805E-01 0.556E-01 0.322E+01   -.162E-01 -.196E-01 -.192E-01
   -.381E+02 0.211E+02 -.257E+04   0.382E+02 -.210E+02 0.257E+04   -.216E-02 0.366E-02 0.320E+01   -.109E-01 -.836E-02 0.231E-01
   -.423E+02 -.208E+02 -.257E+04   0.421E+02 0.208E+02 0.257E+04   0.142E+00 -.189E-01 0.324E+01   -.866E-02 0.261E-01 0.112E-01
   -.144E+02 -.149E+02 -.259E+04   0.145E+02 0.149E+02 0.258E+04   -.684E-01 -.397E-01 0.324E+01   -.890E-02 0.975E-02 0.252E-02
   0.504E-01 -.149E+03 -.157E+04   -.102E-01 0.162E+03 0.156E+04   -.378E-01 -.131E+02 0.120E+02   0.832E-03 -.239E-02 0.336E-02
   -.623E-01 0.182E+03 -.196E+04   0.866E-01 -.216E+03 0.198E+04   -.196E-01 0.349E+02 -.182E+02   -.305E-02 0.390E-02 -.192E-02
   0.190E+00 -.428E+02 -.377E+03   -.205E+00 0.457E+02 0.383E+03   0.174E-01 -.290E+01 -.657E+01   -.103E-03 0.762E-04 -.532E-03
   0.804E-01 -.206E+02 0.187E+02   -.204E-12 0.121E-12 -.302E-10   -.386E-01 0.205E+02 -.189E+02   -.396E-01 0.303E-01 0.217E+00

 POSITION                                       TOTAL-FORCE (eV/Angst)
      1.37275      1.37275     12.08797         0.009260     -0.004150      0.008310
      1.37275      4.11824     12.08797        -0.013475      0.001481      0.003646
      1.37275      6.86373     12.08797         0.005480     -0.001246      0.011539
      1.37275      9.60922     12.08797        -0.000229      0.005138      0.008420
      4.11824      1.37275     12.08797         0.001147     -0.009145      0.022989
      4.11824      4.11824     12.08797         0.000366     -0.011623     -0.024575
      4.11824      6.86373     12.08797         0.000481      0.008353      0.019208
      4.11824      9.60922     12.08797         0.001599     -0.010559      0.024018
      6.86373      1.37275     12.08797        -0.007402     -0.002065      0.008429
      6.86373      4.11824     12.08797         0.012447      0.002582      0.003660
      6.86373      6.86373     12.08797        -0.005085      0.000258      0.011463
      6.86373      9.60922     12.08797         0.002735      0.005177      0.008247
      9.60922      1.37275     12.08797         0.001467     -0.039925     -0.010494
      9.60922      4.11824     12.08797         0.000908      0.011264      0.006425
      9.60922      6.86373     12.08797         0.000846      0.014533     -0.004703
      9.60922      9.60922     12.08797         0.001150      0.029456     -0.064580
      0.00234      0.00304     14.04775         0.000460     -0.000491     -0.001975
      0.00259      2.74125     14.03739        -0.001083      0.001782     -0.003382
      0.00431      5.49661     14.04220        -0.001296      0.000586     -0.002637
     -0.00006      8.23629     14.04146        -0.001859     -0.001245     -0.001646
      2.74312      0.00041     14.04355        -0.000955      0.000665     -0.003044
      2.74650      2.74384     14.04213         0.000910      0.000639      0.001442
      2.74800      5.48866     14.04365         0.001077      0.000297     -0.001541
      2.74182      8.23133     14.04209         0.000421     -0.001459      0.002331
      5.49510      0.00088     14.04332        -0.001537     -0.000218     -0.002445
      5.49028      2.74437     14.04249        -0.000369      0.000453     -0.002132
      5.48841      5.48928     14.04352         0.000168     -0.001061     -0.000896
      5.49569      8.23174     14.04244         0.000127     -0.000895     -0.000048
      8.23568      0.00337     14.04767        -0.000127     -0.000363     -0.001172
      8.23447      2.74201     14.03704        -0.000796     -0.001252      0.000224
      8.23227      5.49707     14.04204        -0.000637      0.001623     -0.000183
      8.23749      8.23651     14.04149         0.000804     -0.000731      0.000913
      1.39017      1.38769     16.01533        -0.000624     -0.001553     -0.003575
      1.36179      4.11728     15.98077         0.002367      0.002071     -0.000493
      1.38970      6.84470     16.01652         0.001409      0.001606      0.001689
      1.37164      9.60512     15.98759        -0.000096      0.002488      0.001270
      4.11923      1.36954     15.99875         0.000586     -0.000126      0.001039
      4.11830      4.11038     15.98561        -0.000668      0.003136      0.000283
      4.11888      6.86102     15.99524        -0.001693     -0.000812      0.000919
      4.11982      9.60463     15.97785        -0.002022      0.000506      0.000629
      6.84837      1.38880     16.01464        -0.000458     -0.000066      0.000794
      6.87412      4.11877     15.98082        -0.001122     -0.000060      0.000580
      6.84691      6.84577     16.01729         0.000231      0.000629     -0.001279
      6.86756      9.60661     15.98788        -0.001713     -0.001353     -0.001491
      9.61047      1.37260     15.98541        -0.002377      0.001712     -0.002881
      9.60893      4.11952     15.97619         0.001229      0.001028     -0.002313
      9.60977      6.86424     15.98947        -0.002182      0.000639     -0.001056
      9.61086      9.60725     15.98703        -0.001586     -0.000764     -0.002477
     10.97962     10.97750     17.94486        -0.001800      0.001831     -0.004417
     10.96007      2.74856     17.94681        -0.000632      0.002609     -0.000725
     10.96958      5.48372     17.94981         0.000376      0.001242     -0.000708
     10.97689      8.23907     17.94810         0.001179      0.001557     -0.000635
      2.75109     10.96096     17.94386        -0.002757      0.001980     -0.002567
      2.68615      2.71625     17.99703        -0.000194      0.001325      0.000939
      2.69806      5.50629     18.01149         0.000742     -0.001305      0.001170
      2.74902      8.24436     17.94627        -0.000149      0.001812      0.002522
      5.49035     10.96315     17.94418        -0.002151      0.000247     -0.003146
      5.55043      2.71888     17.99753         0.002564     -0.003471     -0.001170
      5.53707      5.50778     18.01386        -0.001044     -0.002618     -0.000545
      5.48925      8.24658     17.94734        -0.000180     -0.001993     -0.000686
      8.24379     10.97872     17.94444        -0.003089      0.001444     -0.003294
      8.25851      2.74977     17.94637         0.001805      0.000678      0.000387
      8.24812      5.48476     17.94967         0.000521      0.001119      0.000593
      8.24343      8.24033     17.94667        -0.000294      0.000327      0.005749
      4.11609      4.83451     19.31624         0.003075      0.005458     -0.012016
      4.11677      3.47163     19.46129         0.001553     -0.019451     -0.000729
      4.11363      5.23885     20.26614         0.002194      0.000270      0.011826
    total drift:                                0.002112     -0.009172      0.004375

  FREE ENERGIE OF THE ION-ELECTRON SYSTEM (eV)
  free  energy   TOTEN  =      -354.47405126 eV

  energy  without entropy=     -354.33245724  energy(sigma->0) =     -354.42685326

 d Force = 0.4094487E-04[ 0.335E-04, 0.484E-04]  d Energy = 0.3888385E-04 0.206E-05
 d Force =-0.2924921E+01[-0.292E+01,-0.293E+01]  d Ewald  =-0.2924920E+01-0.128E-05

 Conjugate gradient step on ions:
 trial-energy change:   -0.000039  1 .order   -0.000041   -0.000048   -0.000034
  (g-gl).g = 0.114E-03      g.g   = 0.941E-04  gl.gl    = 0.186E-03
 g(Force)  = 0.941E-04   g(Stress)= 0.000E+00 ortho     =-0.857E-05
 gamma     =   0.61652
 trial     =   0.54454
 opt step  =   1.77150  (harmonic =   1.77150) maximal distance =0.00192145
 next E    =  -354.474091   (d E  =  -0.00008)

 reached required accuracy - stopping structural energy minimisation

 total charge

[...]

 magnetization (x)

# of ion       s       p       d       tot
    1       -0.001  -0.003   0.210   0.206
    2       -0.001  -0.003   0.205   0.201
    3       -0.001  -0.003   0.208   0.204
    4       -0.000  -0.003   0.209   0.206
    5       -0.000  -0.003   0.209   0.205
    6        0.000  -0.003   0.206   0.203
    7       -0.001  -0.003   0.210   0.207
    8       -0.001  -0.004   0.195   0.191
    9       -0.001  -0.003   0.210   0.206
   10       -0.001  -0.003   0.205   0.201
   11       -0.001  -0.003   0.208   0.204
   12       -0.000  -0.003   0.209   0.206
   13       -0.000  -0.003   0.217   0.214
   14       -0.001  -0.004   0.196   0.192
   15       -0.000  -0.003   0.215   0.212
   16        0.002  -0.003   0.213   0.212
   17       -0.002  -0.006   0.290   0.283
   18       -0.002  -0.006   0.301   0.293
   19       -0.002  -0.006   0.301   0.293
   20       -0.002  -0.006   0.291   0.283
   21       -0.002  -0.006   0.299   0.291
   22       -0.002  -0.006   0.298   0.290
   23       -0.002  -0.006   0.299   0.292
   24       -0.002  -0.006   0.294   0.287
   25       -0.002  -0.006   0.299   0.291
   26       -0.002  -0.006   0.298   0.290
   27       -0.002  -0.006   0.299   0.292
   28       -0.002  -0.006   0.294   0.287
   29       -0.002  -0.006   0.290   0.283
   30       -0.002  -0.006   0.301   0.293
   31       -0.002  -0.006   0.301   0.294
   32       -0.002  -0.006   0.291   0.283
   33       -0.002  -0.006   0.252   0.245
   34       -0.001  -0.005   0.283   0.276
   35       -0.002  -0.006   0.239   0.231
   36       -0.002  -0.005   0.294   0.287
   37       -0.001  -0.005   0.287   0.281
   38       -0.001  -0.005   0.292   0.287
   39       -0.002  -0.005   0.272   0.266
   40       -0.002  -0.006   0.283   0.276
   41       -0.002  -0.006   0.253   0.245
   42       -0.001  -0.005   0.283   0.276
   43       -0.002  -0.006   0.239   0.232
   44       -0.002  -0.005   0.294   0.287
   45       -0.002  -0.006   0.293   0.286
   46       -0.002  -0.005   0.290   0.282
   47       -0.002  -0.005   0.288   0.281
   48       -0.001  -0.006   0.308   0.302
   49       -0.001  -0.003   0.191   0.187
   50       -0.000  -0.003   0.187   0.183
   51       -0.000  -0.004   0.173   0.169
   52       -0.001  -0.003   0.192   0.188
   53       -0.000  -0.003   0.190   0.187
   54       -0.002  -0.003   0.126   0.121
   55       -0.002  -0.004   0.064   0.058
   56       -0.000  -0.003   0.184   0.180
   57       -0.000  -0.003   0.190   0.187
   58       -0.002  -0.003   0.126   0.121
   59       -0.002  -0.004   0.064   0.058
   60       -0.000  -0.003   0.184   0.180
   61       -0.001  -0.003   0.191   0.187
   62       -0.000  -0.003   0.187   0.184
   63       -0.000  -0.004   0.173   0.169
   64       -0.001  -0.003   0.192   0.189
   65       -0.000  -0.009   0.000  -0.009
   66        0.000   0.001   0.000   0.002
   67        0.001  -0.000   0.000   0.000
tot         -0.071  -0.289  15.137  14.777