 vasp.5.4.4.18Apr17-6-g9f103f2a35 (build Nov 10 2017 12:53:03) complex

 executed on             LinuxIFC date 2022.01.21  22:53:33

 INCAR:
 POTCAR:    PAW_PBE Pd 04Jan2005
 POTCAR:    PAW_PBE N 08Apr2002
 POTCAR:    PAW_PBE O 08Apr2002
 POTCAR:    PAW_PBE H 15Jun2001
 POTCAR:    PAW_PBE Pd 04Jan2005
   VRHFIN =Pd : s1 d9

   TITEL  = PAW_PBE Pd 04Jan2005
   POMASS =  106.420; ZVAL   =   10.000    mass and valenz
   ENMAX  =  250.925; ENMIN  =  188.194 eV

 POTCAR:    PAW_PBE N 08Apr2002
   VRHFIN =N: s2p3

   TITEL  = PAW_PBE N 08Apr2002
   POMASS =   14.001; ZVAL   =    5.000    mass and valenz
   ENMAX  =  400.000; ENMIN  =  300.000 eV

 POTCAR:    PAW_PBE O 08Apr2002
   VRHFIN =O: s2p4

   TITEL  = PAW_PBE O 08Apr2002
   POMASS =   16.000; ZVAL   =    6.000    mass and valenz
   ENMAX  =  400.000; ENMIN  =  300.000 eV

 POTCAR:    PAW_PBE H 15Jun2001
   VRHFIN =H: ultrasoft test

   TITEL  = PAW_PBE H 15Jun2001
   POMASS =    1.000; ZVAL   =    1.000    mass and valenz
   ENMAX  =  250.000; ENMIN  =  200.000 eV

 Optimization of the real space projectors (new method)

 maximal supplied QI-value         = 14.36
 optimisation between [QCUT,QGAM] = [ 10.20, 20.39] = [ 29.12,116.47] Ry
 Optimized for a Real-space Cutoff    1.55 Angstroem

   l    n(q)    QCUT    max X(q) W(low)/X(q) W(high)/X(q)  e(spline)
   2      9    10.197    59.108    0.12E-03    0.40E-04    0.11E-06
   2      9    10.197    58.101    0.12E-03    0.39E-04    0.12E-06
   0      9    10.197   102.235    0.41E-04    0.86E-05    0.83E-07
   0      9    10.197    58.388    0.37E-04    0.79E-05    0.78E-07
   1      9    10.197    22.191    0.25E-03    0.13E-03    0.84E-07
   1      9    10.197    15.590    0.21E-03    0.11E-03    0.74E-07
 Optimization of the real space projectors (new method)

[...]

   l    n(q)    QCUT    max X(q) W(low)/X(q) W(high)/X(q)  e(spline)
   0      9    10.150    20.381    0.17E-03    0.18E-03    0.41E-06
   0      9    10.150    15.268    0.18E-03    0.20E-03    0.43E-06
   1      9    10.150     5.964    0.16E-03    0.20E-03    0.36E-06
   1      9    10.150     5.382    0.13E-03    0.16E-03    0.33E-06
 Optimization of the real space projectors (new method)

 maximal supplied QI-value         = 34.20
 optimisation between [QCUT,QGAM] = [  9.92, 20.18] = [ 27.55,114.04] Ry
 Optimized for a Real-space Cutoff    1.34 Angstroem

   l    n(q)    QCUT    max X(q) W(low)/X(q) W(high)/X(q)  e(spline)
   0      8     9.919    19.460    0.16E-03    0.20E-03    0.36E-06
   0      8     9.919    12.209    0.16E-03    0.20E-03    0.35E-06
   1      8     9.919     4.655    0.19E-03    0.46E-03    0.40E-06
  PAW_PBE Pd 04Jan2005                  :
  PAW_PBE N 08Apr2002                   :
  PAW_PBE O 08Apr2002                   :
  PAW_PBE H 15Jun2001                   :

 POSCAR: Pd N O H
  positions in direct lattice
  velocities in cartesian coordinates
 exchange correlation table for  LEXCH =        8
   RHO(1)=    0.500       N(1)  =     2000
   RHO(2)=  100.500       N(2)  =     4000

 VTST: version 3.1, (03/28/14)

 CHAIN: initializing optimizer

 OPT: Using Conjugate-Gradient optimizer
 OPT: CG, Init
 OPT: CG, FDSTEP      0.005000
 OPT: CG, MAXMOVE      0.200000

 CHAIN: Read ICHAIN            2

 POSCAR: Pd N O H
  positions in direct lattice
  velocities in cartesian coordinates
 CHAIN: Running the Dimer method

 Dimer: -----------------
 Dimer: Input Parameters
 Dimer:   Seed      0
 Dimer: RotMax      4
 Dimer:     dR      0.005000
 Dimer:  FNMax      1.000000
 Dimer:  FNMin      0.010000
 Dimer: -----------------

 ion  position               nearest neighbor table
   1  0.125  0.125  0.403-   4 2.75  13 2.75   5 2.75   2 2.75  18 2.75  22 2.75  17 2.75  21 2.76

   2  0.125  0.375  0.403-  14 2.75   6 2.75   1 2.75   3 2.75  18 2.75  19 2.75  22 2.76  23 2.76

[...]

  17  1.000  1.000  0.468-  29 2.74  33 2.75  21 2.75  18 2.75  16 2.75  45 2.75   4 2.75  20 2.75
                            48 2.75  13 2.75   1 2.75  36 2.75
  18  0.000  0.250  0.468-  19 2.74  22 2.74  30 2.74  17 2.75  46 2.75   1 2.75  13 2.75   2 2.75
                            14 2.75  33 2.75  45 2.75  34 2.77
  19  0.001  0.499  0.468-  18 2.74  23 2.74  20 2.74  47 2.75  46 2.75  35 2.75   2 2.75  31 2.76
                             3 2.76  14 2.76  34 2.76  15 2.77
  20  0.000  0.749  0.468-  19 2.74  24 2.74  36 2.75   3 2.75  48 2.75  17 2.75  15 2.75  32 2.75
                            47 2.75   4 2.76  16 2.76  35 2.76
  21  0.250  0.999  0.468-  37 2.74  25 2.74  17 2.75   8 2.75   4 2.75  36 2.75  33 2.75  24 2.75
                            22 2.75  40 2.76   5 2.76   1 2.76
  22  0.250  0.250  0.468-  18 2.74  23 2.74  38 2.75  33 2.75  21 2.75  37 2.75  26 2.75   1 2.75
                             2 2.76   5 2.76  34 2.76   6 2.76
  23  0.250  0.500  0.468-  24 2.74  27 2.74  19 2.74  22 2.74  39 2.75  35 2.75  34 2.76   6 2.76
                            38 2.76   2 2.76   7 2.76   3 2.76
  24  0.250  0.749  0.468-  23 2.74  36 2.74  28 2.74  40 2.74  20 2.74  21 2.75   7 2.75   3 2.75
                            35 2.75  39 2.76   8 2.76   4 2.77
  25  0.500  0.999  0.468-  37 2.74  21 2.74   8 2.75  29 2.75  12 2.75  41 2.75  26 2.75  44 2.75
                            28 2.75   5 2.75  40 2.76   9 2.76
  26  0.500  0.250  0.468-  30 2.74  27 2.74  38 2.75  41 2.75  25 2.75   9 2.75  22 2.75  37 2.75
                            10 2.75   5 2.75   6 2.76  42 2.76
  27  0.500  0.500  0.468-  28 2.74  23 2.74  26 2.74  31 2.74  39 2.75  43 2.75  42 2.75  38 2.76
                             6 2.76  10 2.76   7 2.76  11 2.76
  28  0.500  0.749  0.468-  27 2.74  44 2.74  24 2.74  32 2.74  40 2.75   7 2.75  25 2.75  11 2.75
                            43 2.76   8 2.76  39 2.76  12 2.76
  29  0.750  0.999  0.468-  17 2.74  41 2.74  25 2.75  16 2.75  48 2.75  45 2.75  32 2.75  12 2.75
                            30 2.75  44 2.75  13 2.75   9 2.75
  30  0.750  0.250  0.468-  31 2.74  26 2.74  18 2.74  13 2.75  29 2.75   9 2.75  46 2.75  14 2.75
                            41 2.75  10 2.75  45 2.75  42 2.77
  31  0.750  0.499  0.468-  30 2.74  32 2.74  27 2.74  47 2.74  46 2.75  43 2.75  10 2.76  19 2.76
                            14 2.76  42 2.76  11 2.76  15 2.76
  32  0.750  0.749  0.468-  31 2.74  28 2.74  44 2.75  48 2.75  11 2.75  29 2.75  20 2.75  15 2.75
                            47 2.75  12 2.76  16 2.76  43 2.76
  33  0.125  0.124  0.533-  54 2.74  45 2.74  17 2.75  22 2.75  37 2.75  36 2.75  21 2.75  34 2.75
                            18 2.75  50 2.76  49 2.76  53 2.76
  34  0.126  0.375  0.534-  35 2.73  38 2.74  33 2.75  51 2.75  23 2.76  46 2.76  55 2.76  22 2.76
                            54 2.76  50 2.76  19 2.76  18 2.77
  35  0.125  0.624  0.533-  34 2.73  39 2.74  36 2.75  47 2.75  19 2.75  23 2.75  52 2.75  24 2.75
                            51 2.76  20 2.76  56 2.77  55 2.81
  36  0.125  0.874  0.533-  24 2.74  40 2.74  20 2.75  35 2.75  48 2.75  33 2.75  21 2.75  17 2.75
                            53 2.76  49 2.76  56 2.76  52 2.76
  37  0.375  0.123  0.533-  21 2.74  25 2.74  38 2.74  40 2.74  54 2.75  33 2.75  41 2.75  58 2.75
                            22 2.75  26 2.75  57 2.76  53 2.76
  38  0.375  0.373  0.533-  42 2.73  34 2.74  37 2.74  39 2.75  22 2.75  26 2.75  27 2.76  23 2.76
                            58 2.77  54 2.77  59 2.81  55 2.81
  39  0.375  0.623  0.534-  35 2.74  43 2.74  38 2.75  27 2.75  23 2.75  40 2.75  24 2.76  28 2.76
                            56 2.79  60 2.79  55 2.84  59 2.84
  40  0.375  0.874  0.533-  44 2.74  37 2.74  24 2.74  36 2.74  28 2.75  39 2.75  57 2.75  21 2.76
                            53 2.76  25 2.76  56 2.77  60 2.77
  41  0.625  0.124  0.533-  45 2.74  58 2.74  29 2.74  26 2.75  44 2.75  25 2.75  37 2.75  30 2.75
                            42 2.75  62 2.76  61 2.76  57 2.76
  42  0.624  0.375  0.534-  38 2.73  43 2.74  41 2.75  63 2.75  27 2.75  62 2.76  46 2.76  26 2.76
                            59 2.76  58 2.76  31 2.76  30 2.77
  43  0.625  0.624  0.533-  42 2.74  39 2.74  44 2.75  47 2.75  27 2.75  31 2.75  64 2.75  28 2.76
                            63 2.76  32 2.76  60 2.78  59 2.82
  44  0.625  0.874  0.533-  40 2.74  28 2.74  32 2.75  48 2.75  43 2.75  41 2.75  25 2.75  29 2.75
                            61 2.76  57 2.76  64 2.76  60 2.77
  45  0.875  0.124  0.533-  46 2.74  41 2.74  33 2.74  48 2.75  29 2.75  17 2.75  62 2.75  30 2.75
                            18 2.75  50 2.75  49 2.76  61 2.76
  46  0.875  0.374  0.533-  45 2.74  47 2.75  18 2.75  19 2.75  31 2.75  30 2.75  34 2.76  42 2.76
                            63 2.76  62 2.76  51 2.76  50 2.76
  47  0.875  0.624  0.533-  31 2.74  19 2.75  48 2.75  46 2.75  43 2.75  35 2.75  32 2.75  20 2.75
                            64 2.75  52 2.75  63 2.76  51 2.76
  48  0.875  0.874  0.533-  47 2.75  44 2.75  45 2.75  32 2.75  36 2.75  29 2.75  20 2.75  17 2.75
                            61 2.75  49 2.75  64 2.76  52 2.76
  49  1.000  0.999  0.598-  50 2.74  52 2.74  61 2.74  53 2.75  48 2.75  36 2.76  33 2.76  45 2.76

[...]

  55  0.247  0.495  0.601-  65 2.04  51 2.72  54 2.74  34 2.76  59 2.81  38 2.81  35 2.81  56 2.82
                            39 2.84
  56  0.249  0.751  0.599-  67 1.97  53 2.72  52 2.74  36 2.76  60 2.77  40 2.77  35 2.77  39 2.79
                            55 2.82
  57  0.500  0.999  0.598-  58 2.71  60 2.72  61 2.75  53 2.75  40 2.75  44 2.76  37 2.76  41 2.76

[...]

  59  0.503  0.495  0.601-  65 2.04  63 2.73  58 2.73  42 2.76  55 2.81  38 2.81  43 2.82  60 2.82
                            39 2.84
  60  0.501  0.751  0.599-  67 1.96  57 2.72  64 2.74  44 2.77  56 2.77  40 2.77  43 2.78  39 2.79
                            59 2.82
  61  0.750  0.999  0.598-  64 2.74  62 2.74  49 2.74  57 2.75  48 2.75  44 2.76  41 2.76  45 2.76

[...]

  65  0.375  0.554  0.645-  66 1.23  67 1.30  55 2.04  59 2.04
  66  0.375  0.527  0.685-  65 1.23
  67  0.376  0.667  0.634-  65 1.30  60 1.96  56 1.97

  LATTYP: Found a simple tetragonal cell.
 ALAT       =    10.9820000000
 C/A-ratio  =     2.7317428519

  Lattice vectors:

 A1 = (  10.9820000000,   0.0000000000,   0.0000000000)
 A2 = (   0.0000000000,  10.9820000000,   0.0000000000)
 A3 = (   0.0000000000,   0.0000000000,  30.0000000000)

Analysis of symmetry for initial positions (statically):
 Subroutine PRICEL returns:
 Original cell was already a primitive cell.

 Routine SETGRP: Setting up the symmetry group for a
 simple tetragonal supercell.

 Subroutine GETGRP returns: Found  1 space group operations
 (whereof  1 operations were pure point group operations)
 out of a pool of 16 trial point group operations.

The static configuration has the point symmetry C_1 .

Analysis of symmetry for dynamics (positions and initial velocities):
 Subroutine PRICEL returns:
 Original cell was already a primitive cell.

[...]

The dynamic configuration has the point symmetry C_1 .

Analysis of constrained symmetry for selective dynamics:
 Subroutine PRICEL returns:
 Original cell was already a primitive cell.

[...]

The constrained configuration has the point symmetry C_1 .

[...]
   -.537E-01 0.184E+01 0.266E+04   0.531E-01 -.180E+01 -.266E+04   0.110E-02 -.661E-01 -.325E+01   0.211E-04 -.794E-03 -.942E-03
   -.864E-01 0.898E+00 0.266E+04   0.862E-01 -.841E+00 -.266E+04   -.119E-03 -.508E-01 -.328E+01   -.161E-03 -.514E-03 -.790E-03
   0.167E+01 -.634E+00 0.939E+03   -.167E+01 0.655E+00 -.939E+03   0.595E-02 -.224E-01 -.296E-01   -.225E-05 0.270E-03 -.128E-02
   0.178E+01 0.699E+00 0.940E+03   -.183E+01 -.732E+00 -.940E+03   0.394E-01 0.350E-01 0.361E-01   0.510E-03 0.731E-03 -.138E-02
   0.467E+01 0.145E+01 0.937E+03   -.464E+01 -.147E+01 -.937E+03   -.325E-01 0.131E-01 -.914E-01   0.453E-03 -.140E-03 -.169E-02
   0.338E+01 -.191E+01 0.941E+03   -.339E+01 0.194E+01 -.941E+03   0.270E-02 -.136E-01 -.508E-02   0.847E-04 -.865E-03 -.154E-02
   0.344E+01 -.107E+01 0.943E+03   -.345E+01 0.107E+01 -.943E+03   -.725E-02 0.144E-02 -.387E-01   0.524E-03 0.285E-03 -.162E-02
   0.335E+01 0.311E+01 0.944E+03   -.338E+01 -.310E+01 -.944E+03   0.365E-01 -.112E-02 -.404E-01   0.432E-03 0.983E-03 -.122E-02
   0.500E+01 0.206E+01 0.946E+03   -.501E+01 -.206E+01 -.946E+03   0.533E-02 -.281E-02 -.794E-01   0.414E-03 -.312E-03 -.138E-02
   0.329E+01 -.403E+01 0.943E+03   -.332E+01 0.403E+01 -.943E+03   0.317E-01 0.382E-04 -.612E-01   0.649E-03 -.963E-03 -.175E-02
   -.322E+01 -.725E+00 0.944E+03   0.323E+01 0.727E+00 -.944E+03   0.779E-02 -.898E-02 -.269E-01   -.800E-04 -.993E-06 -.134E-02
   -.312E+01 0.311E+01 0.945E+03   0.314E+01 -.310E+01 -.945E+03   -.357E-01 -.312E-02 -.273E-01   -.716E-03 0.547E-03 -.118E-02
   -.504E+01 0.193E+01 0.946E+03   0.504E+01 -.193E+01 -.946E+03   -.166E-03 -.665E-03 -.993E-01   -.847E-03 -.379E-04 -.149E-02
   -.319E+01 -.426E+01 0.944E+03   0.321E+01 0.427E+01 -.944E+03   -.299E-01 0.109E-01 -.402E-01   -.354E-03 -.512E-03 -.163E-02
   -.188E+01 -.815E+00 0.939E+03   0.188E+01 0.836E+00 -.939E+03   -.858E-02 -.142E-01 -.413E-01   -.442E-03 -.344E-04 -.101E-02
   -.200E+01 0.679E+00 0.941E+03   0.205E+01 -.711E+00 -.941E+03   -.412E-01 0.337E-01 0.342E-01   -.225E-03 0.306E-03 -.136E-02
   -.454E+01 0.145E+01 0.937E+03   0.452E+01 -.147E+01 -.937E+03   0.207E-01 0.121E-01 -.935E-01   -.208E-04 0.153E-03 -.179E-02
   -.352E+01 -.176E+01 0.941E+03   0.353E+01 0.178E+01 -.941E+03   -.103E-02 -.157E-01 -.887E-02   -.379E-03 -.424E-03 -.142E-02
   0.112E+02 0.510E+01 -.827E+03   -.112E+02 -.508E+01 0.827E+03   -.139E-01 -.258E-01 0.411E-01   0.452E-03 0.888E-03 -.118E-02
   0.207E+02 0.138E+02 -.830E+03   -.206E+02 -.136E+02 0.830E+03   -.131E+00 -.219E+00 -.163E+00   0.671E-03 0.340E-03 -.137E-02
   0.193E+02 -.680E+01 -.822E+03   -.193E+02 0.677E+01 0.822E+03   -.386E-02 0.334E-01 0.721E-01   0.582E-03 -.850E-03 -.117E-02
   0.132E+02 -.107E+02 -.823E+03   -.132E+02 0.106E+02 0.823E+03   -.462E-02 0.772E-01 0.871E-01   0.328E-03 -.381E-03 -.977E-03
   -.386E-01 0.814E+01 -.815E+03   0.381E-01 -.813E+01 0.815E+03   0.404E-02 -.491E-02 0.483E-01   0.135E-03 0.653E-03 -.127E-02
   0.292E+00 0.158E+02 -.799E+03   -.291E+00 -.159E+02 0.799E+03   -.806E-02 0.109E+00 0.288E+00   -.403E-03 0.332E-03 -.170E-02
   -.288E+00 -.908E+01 -.792E+03   0.288E+00 0.921E+01 0.791E+03   0.421E-02 -.137E+00 0.667E+00   -.214E-03 -.648E-03 -.148E-02
   -.978E-01 -.151E+02 -.815E+03   0.986E-01 0.150E+02 0.815E+03   -.270E-02 0.364E-01 -.205E-02   0.339E-03 -.328E-03 -.108E-02
   -.105E+02 0.496E+01 -.826E+03   0.105E+02 -.495E+01 0.826E+03   -.268E-02 -.189E-01 0.521E-01   -.469E-03 0.372E-04 -.128E-02
   -.205E+02 0.135E+02 -.828E+03   0.204E+02 -.132E+02 0.828E+03   0.125E+00 -.213E+00 -.156E+00   -.664E-03 0.129E-03 -.138E-02
   -.186E+02 -.681E+01 -.821E+03   0.186E+02 0.678E+01 0.821E+03   -.893E-02 0.329E-01 0.846E-01   -.462E-03 -.136E-03 -.139E-02
   -.124E+02 -.103E+02 -.823E+03   0.124E+02 0.102E+02 0.823E+03   -.813E-02 0.721E-01 0.754E-01   -.231E-03 -.341E-04 -.129E-02
   -.465E+00 0.284E+01 -.836E+03   0.465E+00 -.283E+01 0.836E+03   0.594E-02 -.176E-01 0.403E-01   -.116E-03 0.248E-03 -.124E-02
   -.301E+00 0.696E+01 -.832E+03   0.302E+00 -.695E+01 0.832E+03   -.492E-03 -.781E-02 0.496E-01   0.390E-03 0.291E-03 -.115E-02
   -.337E+00 -.314E+01 -.827E+03   0.337E+00 0.313E+01 0.827E+03   0.691E-02 0.184E-01 0.474E-01   0.915E-04 -.294E-03 -.117E-02
   -.678E+00 -.636E+01 -.832E+03   0.677E+00 0.637E+01 0.832E+03   0.121E-01 -.472E-02 0.345E-01   -.435E-03 -.244E-03 -.122E-02
   0.123E+02 -.577E+01 -.258E+04   -.124E+02 0.576E+01 0.258E+04   0.257E-01 0.178E-01 0.324E+01   0.180E-03 0.138E-03 0.203E-04
   0.191E+02 0.186E+02 -.258E+04   -.191E+02 -.186E+02 0.258E+04   0.218E-01 0.349E-01 0.329E+01   0.378E-03 0.545E-03 -.228E-03
   0.429E+02 0.716E+01 -.257E+04   -.427E+02 -.718E+01 0.256E+04   -.198E+00 0.246E-01 0.328E+01   0.417E-03 -.127E-03 -.412E-03
   0.270E+02 -.214E+02 -.257E+04   -.269E+02 0.214E+02 0.257E+04   -.676E-01 0.104E-01 0.327E+01   0.207E-03 -.554E-03 -.415E-04
   0.155E+02 -.148E+02 -.257E+04   -.155E+02 0.147E+02 0.257E+04   -.125E-01 0.429E-01 0.318E+01   0.400E-03 0.576E-04 -.773E-04
   0.271E+02 0.543E+02 -.255E+04   -.272E+02 -.544E+02 0.255E+04   0.825E-01 0.112E+00 0.330E+01   -.223E-04 0.450E-03 -.717E-03
   0.156E+03 0.640E+02 -.243E+04   -.156E+03 -.641E+02 0.243E+04   -.246E+00 0.137E+00 0.154E+01   -.971E-04 -.508E-04 -.981E-03
   0.732E+02 -.877E+02 -.251E+04   -.729E+02 0.883E+02 0.251E+04   -.264E+00 -.620E+00 0.288E+01   0.122E-03 -.435E-03 -.287E-03
   -.155E+02 -.146E+02 -.257E+04   0.154E+02 0.146E+02 0.257E+04   0.159E-01 0.362E-01 0.318E+01   -.890E-04 0.314E-04 -.314E-03
   -.271E+02 0.548E+02 -.255E+04   0.271E+02 -.549E+02 0.255E+04   -.810E-01 0.995E-01 0.329E+01   -.260E-03 0.545E-04 -.640E-03
   -.156E+03 0.635E+02 -.243E+04   0.156E+03 -.637E+02 0.243E+04   0.250E+00 0.169E+00 0.155E+01   -.332E-03 -.265E-04 -.805E-03
   -.737E+02 -.880E+02 -.251E+04   0.734E+02 0.886E+02 0.251E+04   0.304E+00 -.600E+00 0.283E+01   -.186E-03 -.433E-04 -.457E-03
   -.125E+02 -.623E+01 -.258E+04   0.125E+02 0.621E+01 0.258E+04   -.221E-01 0.311E-01 0.325E+01   -.492E-03 -.662E-04 -.230E-03
   -.194E+02 0.191E+02 -.258E+04   0.194E+02 -.191E+02 0.258E+04   -.138E-01 0.155E-01 0.329E+01   -.878E-04 0.196E-03 -.203E-03
   -.426E+02 0.665E+01 -.257E+04   0.424E+02 -.668E+01 0.256E+04   0.192E+00 0.377E-01 0.329E+01   0.246E-04 0.666E-04 -.262E-03
   -.270E+02 -.209E+02 -.257E+04   0.270E+02 0.209E+02 0.257E+04   0.735E-01 -.152E-03 0.327E+01   -.139E-03 -.199E-03 -.222E-03
   0.565E-01 -.624E+02 -.141E+04   -.109E+00 0.652E+02 0.139E+04   0.543E-01 -.279E+01 0.223E+02   -.125E-03 0.335E-04 -.177E-03
   0.115E+00 0.615E+02 -.206E+04   -.135E+00 -.748E+02 0.211E+04   0.216E-01 0.134E+02 -.546E+02   -.638E-04 0.507E-06 0.289E-03
   -.304E-01 -.422E+02 -.302E+03   0.229E-01 0.439E+02 0.302E+03   0.334E-02 -.160E+01 0.112E+00   -.286E-04 0.140E-04 -.317E-04
   -.113E+00 -.798E+01 0.360E+02   -.367E-12 0.142E-12 -.214E-10   0.115E+00 0.797E+01 -.359E+02   -.201E-03 0.762E-04 -.605E-01

 POSITION                                       TOTAL-FORCE (eV/Angst)
      1.37268      1.37217     12.08575        -0.004898     -0.003994     -0.008844
      1.37264      4.11790     12.08526         0.005051      0.001716      0.014864
      1.37277      6.86382     12.08563        -0.001880     -0.021401      0.013143
      1.37284      9.60909     12.08613         0.004690     -0.018370      0.007660
      4.11824      1.37210     12.08578        -0.003526      0.001410      0.008102
      4.11824      4.11792     12.08530        -0.000275     -0.013173      0.027982
      4.11824      6.86380     12.08605        -0.001408     -0.005080      0.007183
      4.11824      9.60897     12.08637        -0.002766     -0.031556      0.015824
      6.86379      1.37217     12.08576         0.009484     -0.005169     -0.010670
      6.86382      4.11790     12.08527        -0.002464      0.005231      0.016142
      6.86369      6.86382     12.08564         0.003654     -0.026085      0.013003
      6.86362      9.60909     12.08614        -0.002980     -0.017857      0.004944
      9.60921      1.37225     12.08574         0.000035     -0.041683     -0.057347
      9.60921      4.11786     12.08526         0.001753      0.003964      0.010792
      9.60921      6.86381     12.08540         0.000451     -0.028446      0.029511
      9.60921      9.60925     12.08590        -0.000574      0.006730     -0.019803
     10.98105     10.97742     14.03521         0.007568     -0.002220      0.008463
      0.00018      2.74380     14.03407        -0.009200      0.001989     -0.005819
      0.00589      5.48480     14.04711        -0.009492     -0.003209     -0.004075
      0.00184      8.22771     14.03782        -0.009090      0.010258     -0.003689
      2.74664     10.97423     14.03748        -0.014783      0.003498     -0.005818
      2.74230      2.74287     14.04082         0.011939      0.007298     -0.012552
      2.74826      5.48653     14.04652         0.002209     -0.006448      0.019397
      2.74619      8.22432     14.04630         0.002790      0.006049     -0.017849
      5.48964     10.97491     14.03605         0.014109     -0.006026      0.005761
      5.49424      2.74294     14.03915        -0.011167      0.005725     -0.003243
      5.48837      5.48621     14.04777         0.001478     -0.004374      0.006053
      5.48976      8.22341     14.04416        -0.000992      0.015120      0.000101
      8.23760     10.97631     14.03579        -0.008104      0.006254     -0.004676
      8.23732      2.74377     14.03381         0.008859      0.001100     -0.009180
      8.23255      5.48486     14.04714         0.000516     -0.003970     -0.008802
      8.23395      8.22778     14.03802         0.010807      0.007759     -0.007812
      1.36975      1.36467     15.98207        -0.012379     -0.010436     -0.006065
      1.38403      4.11583     16.00924         0.009579      0.005929      0.007154
      1.37606      6.85080     16.00171         0.005766     -0.000676      0.005300
      1.37416      9.59755     15.98163        -0.001585      0.004137      0.015428
      4.11819      1.35602     15.97778         0.003558      0.008248     -0.007869
      4.11937      4.09749     15.99459        -0.007499      0.009913      0.001716
      4.11817      6.84315     16.00723         0.004260     -0.003011      0.013047
      4.11887      9.59457     15.98780        -0.001466     -0.014722      0.006490
      6.86748      1.36416     15.97992        -0.002381     -0.005506      0.002252
      6.85381      4.11511     16.00719        -0.015036      0.011536      0.010470
      6.86040      6.85074     16.00070        -0.016171     -0.000944      0.013591
      6.86163      9.59763     15.98193        -0.010872     -0.000611      0.006610
      9.60899      1.36634     15.98281         0.006270     -0.004338     -0.003022
      9.61037      4.10757     15.98823         0.000626     -0.001583      0.011656
      9.60891      6.85498     15.98604         0.006442      0.000632      0.000760
      9.60824      9.60102     15.98068         0.010950      0.004078     -0.007509
     10.98009     10.96794     17.93775         0.007253      0.003943     -0.012556
     10.97766      2.72681     17.94678        -0.001541      0.013125     -0.009078
     10.97384      5.48106     17.95205         0.000138     -0.000504     -0.008293
     10.97334      8.22694     17.94482         0.005101      0.007090     -0.011527
      2.74405     10.96597     17.94238        -0.005397      0.007205     -0.009509
      2.74465      2.69673     17.94388         0.000755      0.012337      0.005073
      2.71427      5.43294     18.03191        -0.010548     -0.006290     -0.020954
      2.73297      8.24900     17.97287         0.006956      0.011065     -0.003066
      5.49131     10.96759     17.94066         0.007519      0.001842     -0.003742
      5.49269      2.69748     17.94504        -0.000576      0.005048     -0.003201
      5.52138      5.43085     18.03171         0.019138      0.002587     -0.023458
      5.50266      8.24905     17.97710        -0.007448      0.009588     -0.016812
      8.23658     10.96755     17.93741        -0.003718      0.011860     -0.007817
      8.23966      2.72845     17.94288         0.007484      0.001402      0.005153
      8.24496      5.48012     17.95099        -0.004154      0.006634     -0.005866
      8.24330      8.22740     17.94171        -0.001134      0.000316      0.003732
      4.11786      6.07894     19.36326         0.001412      0.027132      0.001606
      4.11753      5.79089     20.55405         0.000890      0.008856      0.034541
      4.12646      7.33034     19.02483        -0.003982      0.029074     -0.012978
    total drift:                                0.002162     -0.008715      0.017933

  FREE ENERGIE OF THE ION-ELECTRON SYSTEM (eV)
  free  energy   TOTEN  =      -353.91686823 eV

  energy  without entropy=     -353.79775485  energy(sigma->0) =     -353.87716377

 Dimer: Init Mode:
 Dimer: MODECAR found
 Dimer: -----------------
 Dimer: Itr    1 Rot    0

 Dimer: Central Point
 Dimer: F0      0.115059

 Dimer: Projection
 Dimer: N*F0  1.825647070504923E-002
 Dimer: F0sq  1.323847539800905E-002
 Dimer: Feffsq   3.332987226043208E-004

 stress matrix after NEB project (eV)
    -37.15885     -0.00053      0.02069
     -0.00053    -36.25594      0.98378
      0.02069      0.98378     -4.88463
  FORCES: max atom, RMS     0.035669    0.014057
  FORCE total and by dimension    0.115059    0.034541
  Stress total and by dimension   52.163871   37.158850
 OPT: skip step - force has converged

 reached required accuracy - stopping structural energy minimisation

 total charge

[...]

 magnetization (x)

# of ion       s       p       d       tot
    1       -0.001  -0.003   0.218   0.213
    2       -0.001  -0.004   0.210   0.205
    3       -0.001  -0.003   0.213   0.209
    4       -0.001  -0.004   0.212   0.207
    5       -0.001  -0.004   0.202   0.197
    6       -0.001  -0.003   0.214   0.209
    7       -0.000  -0.003   0.218   0.214
    8       -0.001  -0.003   0.211   0.206
    9       -0.001  -0.003   0.218   0.213
   10       -0.001  -0.004   0.209   0.205
   11       -0.001  -0.003   0.213   0.209
   12       -0.001  -0.004   0.212   0.208
   13        0.001  -0.004   0.233   0.231
   14       -0.001  -0.003   0.213   0.209
   15       -0.001  -0.004   0.203   0.198
   16       -0.001  -0.003   0.225   0.221
   17       -0.002  -0.006   0.321   0.313
   18       -0.002  -0.006   0.306   0.299
   19       -0.002  -0.006   0.307   0.299
   20       -0.002  -0.006   0.308   0.300
   21       -0.002  -0.006   0.307   0.299
   22       -0.002  -0.006   0.303   0.296
   23       -0.002  -0.006   0.306   0.298
   24       -0.002  -0.006   0.307   0.299
   25       -0.002  -0.006   0.306   0.298
   26       -0.002  -0.006   0.303   0.296
   27       -0.002  -0.006   0.306   0.298
   28       -0.002  -0.006   0.307   0.299
   29       -0.002  -0.006   0.321   0.313
   30       -0.002  -0.006   0.306   0.298
   31       -0.002  -0.006   0.307   0.299
   32       -0.002  -0.006   0.309   0.301
   33       -0.002  -0.006   0.308   0.300
   34       -0.002  -0.006   0.261   0.253
   35       -0.002  -0.006   0.289   0.282
   36       -0.002  -0.006   0.294   0.286
   37       -0.002  -0.006   0.285   0.278
   38       -0.002  -0.005   0.283   0.276
   39       -0.001  -0.005   0.249   0.242
   40       -0.002  -0.006   0.291   0.284
   41       -0.002  -0.006   0.308   0.300
   42       -0.002  -0.006   0.262   0.254
   43       -0.002  -0.006   0.290   0.282
   44       -0.002  -0.006   0.294   0.286
   45       -0.001  -0.006   0.312   0.304
   46       -0.002  -0.006   0.299   0.292
   47       -0.002  -0.006   0.294   0.286
   48       -0.001  -0.006   0.315   0.307
   49       -0.001  -0.003   0.205   0.201
   50       -0.001  -0.003   0.208   0.204
   51       -0.001  -0.003   0.186   0.182
   52       -0.001  -0.003   0.205   0.201
   53       -0.001  -0.003   0.189   0.186
   54       -0.001  -0.003   0.193   0.189
   55       -0.002  -0.004   0.064   0.057
   56       -0.002  -0.003   0.140   0.135
   57       -0.001  -0.003   0.189   0.186
   58       -0.001  -0.003   0.192   0.189
   59       -0.002  -0.004   0.064   0.057
   60       -0.002  -0.004   0.138   0.133
   61       -0.001  -0.003   0.206   0.202
   62       -0.001  -0.003   0.208   0.204
   63       -0.001  -0.003   0.187   0.183
   64       -0.001  -0.003   0.205   0.201
   65       -0.000  -0.004   0.000  -0.005
   66       -0.000  -0.009   0.000  -0.009
   67       -0.001  -0.000   0.000  -0.001
tot         -0.084  -0.313  15.766  15.369