 vasp.5.4.4.18Apr17-6-g9f103f2a35 (build Jun 11 2020 13:42:08) complex

 executed on             LinuxIFC date 2021.11.21  07:39:24

 INCAR:
 POTCAR:    PAW_PBE Pd 04Jan2005
 POTCAR:    PAW_PBE N 08Apr2002
 POTCAR:    PAW_PBE O 08Apr2002

 POTCAR:    PAW_PBE Pd 04Jan2005
   VRHFIN =Pd : s1 d9

   TITEL  = PAW_PBE Pd 04Jan2005
   POMASS =  106.420; ZVAL   =   10.000    mass and valenz
   ENMAX  =  250.925; ENMIN  =  188.194 eV

 POTCAR:    PAW_PBE N 08Apr2002
   VRHFIN =N: s2p3

   TITEL  = PAW_PBE N 08Apr2002
   POMASS =   14.001; ZVAL   =    5.000    mass and valenz
   ENMAX  =  400.000; ENMIN  =  300.000 eV

 POTCAR:    PAW_PBE O 08Apr2002
   VRHFIN =O: s2p4

   TITEL  = PAW_PBE O 08Apr2002
   POMASS =   16.000; ZVAL   =    6.000    mass and valenz
   ENMAX  =  400.000; ENMIN  =  300.000 eV

 Optimization of the real space projectors (new method)

 maximal supplied QI-value         = 14.36
 optimisation between [QCUT,QGAM] = [ 10.20, 20.39] = [ 29.12,116.47] Ry
 Optimized for a Real-space Cutoff    1.55 Angstroem

   l    n(q)    QCUT    max X(q) W(low)/X(q) W(high)/X(q)  e(spline)
   2      9    10.197    59.108    0.12E-03    0.40E-04    0.11E-06
   2      9    10.197    58.101    0.12E-03    0.39E-04    0.12E-06
   0      9    10.197   102.235    0.41E-04    0.86E-05    0.83E-07
   0      9    10.197    58.388    0.37E-04    0.79E-05    0.78E-07
   1      9    10.197    22.191    0.25E-03    0.13E-03    0.84E-07
   1      9    10.197    15.590    0.21E-03    0.11E-03    0.74E-07
 Optimization of the real space projectors (new method)

[...]

   l    n(q)    QCUT    max X(q) W(low)/X(q) W(high)/X(q)  e(spline)
   0     10    10.053    79.467    0.61E-04    0.98E-04    0.61E-06
   0     10    10.053    66.151    0.60E-04    0.98E-04    0.61E-06
   1     10    10.053     8.350    0.17E-03    0.71E-03    0.45E-05
   1     10    10.053     5.531    0.18E-03    0.77E-03    0.49E-05
 Optimization of the real space projectors (new method)

 maximal supplied QI-value         = 24.76
 optimisation between [QCUT,QGAM] = [ 10.15, 20.30] = [ 28.85,115.39] Ry
 Optimized for a Real-space Cutoff    1.51 Angstroem

   l    n(q)    QCUT    max X(q) W(low)/X(q) W(high)/X(q)  e(spline)
   0      9    10.150    20.381    0.17E-03    0.18E-03    0.41E-06
   0      9    10.150    15.268    0.18E-03    0.20E-03    0.43E-06
   1      9    10.150     5.964    0.16E-03    0.20E-03    0.36E-06
   1      9    10.150     5.382    0.13E-03    0.16E-03    0.33E-06
  PAW_PBE Pd 04Jan2005                  :
  PAW_PBE N 08Apr2002                   :
  PAW_PBE O 08Apr2002                   :

 POSCAR: Pd N O
  positions in direct lattice
  velocities in cartesian coordinates
 exchange correlation table for  LEXCH =        8
   RHO(1)=    0.500       N(1)  =     2000
   RHO(2)=  100.500       N(2)  =     4000

 VTST: version 3.1, (03/28/14)

 CHAIN: initializing optimizer

 OPT: Using VASP QUASI-newton optimizer
 CHAIN: Read ICHAIN            0
 CHAIN: Running the NEB
 NEB:          SPRING     -5.000000
 NEB:          LCLIMB      T
 NEB:     LTANGENTOLD      F
 NEB:           LDNEB      F
 NEB:        LDNEBORG      F
 NEB:        LNEBCELL      F
 NEB:          EFIRST   -350.864990
 NEB:           ELAST   -350.889913

 POSCAR: Pd N O
  positions in direct lattice

 POSCAR: Pd N O
  positions in direct lattice

 ion  position               nearest neighbor table
   1  0.125  0.125  0.403-  13 2.75   4 2.75   2 2.75   5 2.75  21 2.75  18 2.75  17 2.75  22 2.76

   2  0.125  0.375  0.403-  14 2.75   3 2.75   1 2.75   6 2.75  19 2.75  18 2.75  23 2.75  22 2.76

[...]

  17  0.000  0.000  0.468-  18 2.74  21 2.75  20 2.75  36 2.75  29 2.75  45 2.75  48 2.75   1 2.75
                            13 2.75   4 2.75  16 2.75  33 2.76
  18  1.000  0.250  0.468-  17 2.74  46 2.75  19 2.75  34 2.75  22 2.75  30 2.75  45 2.75  13 2.75
                             1 2.75  14 2.75   2 2.75  33 2.75
  19  1.000  0.500  0.468-  20 2.74  18 2.75  46 2.75  23 2.75  34 2.75  31 2.75  47 2.75  15 2.75
                             3 2.75  14 2.75   2 2.75  35 2.75
  20  1.000  0.750  0.468-  19 2.74  17 2.75  24 2.75  36 2.75  32 2.75  47 2.75  48 2.75   3 2.75
                            15 2.75   4 2.75  16 2.75  35 2.76
  21  0.250  0.000  0.468-  22 2.74  17 2.75  24 2.75  25 2.75  36 2.75  40 2.75   5 2.75   8 2.75
                             1 2.75   4 2.75  33 2.75  37 2.76
  22  0.250  0.250  0.468-  21 2.74  26 2.74  33 2.75  18 2.75  23 2.75  34 2.75  38 2.75   5 2.75
                             6 2.75  37 2.76   1 2.76   2 2.76
  23  0.250  0.500  0.468-  27 2.74  24 2.74  35 2.75  19 2.75  22 2.75  34 2.75  38 2.75   7 2.75
                             6 2.75   3 2.75   2 2.75  39 2.76
  24  0.250  0.750  0.468-  23 2.74  21 2.75  20 2.75  28 2.75  36 2.75  40 2.75   7 2.75   8 2.75
                             3 2.75   4 2.75  35 2.75  39 2.76
  25  0.500  0.000  0.468-  29 2.74  26 2.74  37 2.75  40 2.75  21 2.75  44 2.75  28 2.75   9 2.75
                             5 2.76  12 2.76   8 2.76  41 2.76
  26  0.500  0.250  0.468-  38 2.74  30 2.74  27 2.74  25 2.74  22 2.74  37 2.75  42 2.75  41 2.75
                            10 2.76   6 2.76   9 2.76   5 2.76
  27  0.500  0.500  0.468-  31 2.74  38 2.74  26 2.74  28 2.74  23 2.74  39 2.75  42 2.75  43 2.75
                            10 2.76   6 2.76  11 2.76   7 2.76
  28  0.500  0.750  0.468-  32 2.74  27 2.74  39 2.75  40 2.75  24 2.75  44 2.75  25 2.75  11 2.75
                             7 2.76  12 2.76   8 2.76  43 2.76
  29  0.750  1.000  0.468-  25 2.74  30 2.74  32 2.74  17 2.75  45 2.75  48 2.75  44 2.75  12 2.75
                             9 2.75  16 2.75  13 2.75  41 2.78
  30  0.750  0.250  0.468-  26 2.74  29 2.74  45 2.75  42 2.75  18 2.75  46 2.75   9 2.75  31 2.75
                            10 2.75  13 2.76  14 2.76  41 2.76
  31  0.750  0.500  0.468-  27 2.74  32 2.74  47 2.75  42 2.75  19 2.75  46 2.75  11 2.75  30 2.75
                            10 2.75  15 2.75  14 2.76  43 2.76
  32  0.750  0.750  0.468-  28 2.74  31 2.74  29 2.74  20 2.75  47 2.75  48 2.75  44 2.75  12 2.75
                            11 2.75  16 2.75  15 2.76  43 2.78
  33  0.126  0.125  0.533-  34 2.74  37 2.74  22 2.75  36 2.75  54 2.75  50 2.75  49 2.75  18 2.75
                            21 2.75  45 2.75  53 2.76  17 2.76
  34  0.125  0.375  0.533-  35 2.74  33 2.74  46 2.74  18 2.75  19 2.75  22 2.75  23 2.75  38 2.75
                            51 2.76  50 2.76  54 2.76  55 2.76
  35  0.126  0.624  0.533-  34 2.74  39 2.74  23 2.75  55 2.75  51 2.75  36 2.75  56 2.75  47 2.75
                            19 2.75  24 2.75  52 2.76  20 2.76
  36  0.125  0.875  0.533-  40 2.75  48 2.75  17 2.75  20 2.75  21 2.75  24 2.75  33 2.75  35 2.75
                            49 2.75  56 2.75  52 2.75  53 2.76
  37  0.375  0.125  0.533-  41 2.73  40 2.74  33 2.74  25 2.75  38 2.75  26 2.75  22 2.76  53 2.76
                            21 2.76  57 2.76  54 2.77  58 2.81
  38  0.376  0.375  0.533-  26 2.74  27 2.74  42 2.75  39 2.75  37 2.75  22 2.75  23 2.75  34 2.75
                            54 2.78  55 2.78  59 2.83  58 2.83
  39  0.375  0.625  0.533-  43 2.73  35 2.74  40 2.74  28 2.75  38 2.75  27 2.75  56 2.75  23 2.76
                            24 2.76  60 2.76  55 2.77  59 2.81
  40  0.375  0.875  0.533-  37 2.74  39 2.74  36 2.75  44 2.75  28 2.75  25 2.75  21 2.75  24 2.75
                            56 2.75  53 2.76  57 2.76  60 2.76
  41  0.624  0.126  0.534-  37 2.73  42 2.73  57 2.75  62 2.75  26 2.75  45 2.76  61 2.76  44 2.76
                            25 2.76  30 2.76  58 2.77  29 2.78
  42  0.626  0.375  0.533-  43 2.73  41 2.73  46 2.74  38 2.75  30 2.75  31 2.75  27 2.75  26 2.75
                            62 2.76  63 2.76  59 2.82  58 2.82
  43  0.624  0.624  0.534-  39 2.73  42 2.73  60 2.75  63 2.75  64 2.75  27 2.75  47 2.76  44 2.76
                            28 2.76  31 2.76  59 2.77  32 2.78
  44  0.625  0.875  0.533-  48 2.74  40 2.75  25 2.75  28 2.75  32 2.75  29 2.75  64 2.75  57 2.76
                            61 2.76  60 2.76  41 2.76  43 2.76
  45  0.875  0.125  0.533-  48 2.74  46 2.75  30 2.75  62 2.75  29 2.75  17 2.75  18 2.75  33 2.75
                            49 2.76  41 2.76  61 2.76  50 2.76
  46  0.875  0.375  0.533-  42 2.74  34 2.74  47 2.75  18 2.75  45 2.75  19 2.75  30 2.75  31 2.75
                            62 2.75  63 2.75  50 2.76  51 2.76
  47  0.875  0.625  0.533-  48 2.75  46 2.75  31 2.75  20 2.75  32 2.75  63 2.75  19 2.75  35 2.75
                            64 2.76  52 2.76  43 2.76  51 2.76
  48  0.875  0.875  0.533-  45 2.74  44 2.74  47 2.75  36 2.75  17 2.75  20 2.75  32 2.75  29 2.75
                            64 2.75  49 2.75  52 2.75  61 2.76
  49  0.000  0.000  0.598-  53 2.74  61 2.74  50 2.75  52 2.75  33 2.75  36 2.75  48 2.75  45 2.76

[...]

  58  0.501  0.248  0.601-  65 2.02  57 2.74  62 2.76  54 2.76  41 2.77  59 2.78  37 2.81  42 2.82
                            38 2.83
  59  0.501  0.502  0.601-  65 2.02  60 2.74  55 2.76  63 2.76  43 2.77  58 2.78  39 2.81  42 2.82
                            38 2.83
  60  0.500  0.751  0.598-  57 2.73  59 2.74  56 2.74  43 2.75  64 2.75  44 2.76  39 2.76  40 2.76

[...]

  65  0.426  0.375  0.641-  66 1.21  58 2.02  59 2.02
  66  0.432  0.374  0.681-  65 1.21

  LATTYP: Found a simple tetragonal cell.
 ALAT       =    10.9820000000
 C/A-ratio  =     2.7317428519

  Lattice vectors:

 A1 = (  10.9820000000,   0.0000000000,   0.0000000000)
 A2 = (   0.0000000000,  10.9820000000,   0.0000000000)
 A3 = (   0.0000000000,   0.0000000000,  30.0000000000)

Analysis of symmetry for initial positions (statically):
 Subroutine PRICEL returns:
 Original cell was already a primitive cell.

 Routine SETGRP: Setting up the symmetry group for a
 simple tetragonal supercell.

 Subroutine GETGRP returns: Found  1 space group operations
 (whereof  1 operations were pure point group operations)
 out of a pool of 16 trial point group operations.

The static configuration has the point symmetry C_1 .

Analysis of symmetry for dynamics (positions and initial velocities):
 Subroutine PRICEL returns:
 Original cell was already a primitive cell.

[...]

The dynamic configuration has the point symmetry C_1 .

Analysis of constrained symmetry for selective dynamics:
 Subroutine PRICEL returns:
 Original cell was already a primitive cell.

[...]

The constrained configuration has the point symmetry C_1 .

Analysis of structural, dynamic, and magnetic symmetry:
 Subroutine PRICEL returns:
 Original cell was already a primitive cell.

 Routine SETGRP: Setting up the symmetry group for a
 simple tetragonal supercell.

 Subroutine GETGRP returns: Found  1 space group operations
 (whereof  1 operations were pure point group operations)
 out of a pool of 16 trial point group operations.

The magnetic configuration has the point symmetry C_1 .

 Subroutine INISYM returns: Found  1 space group operations
 (whereof  1 operations are pure point group operations),
 and found     1 'primitive' translations

 KPOINTS: K-Point Grid

Automatic generation of k-mesh.
Space group operators:
[...]
   0.144E+02 -.148E+02 -.833E+03   -.144E+02 0.147E+02 0.833E+03   -.833E-01 0.809E-01 -.251E-01   0.881E-03 -.622E-04 -.944E-03
   0.781E+01 0.142E+00 -.838E+03   -.783E+01 -.143E+00 0.838E+03   0.235E-01 -.248E-02 0.582E-01   0.633E-03 0.160E-03 -.747E-03
   0.444E+01 0.203E+02 -.818E+03   -.439E+01 -.204E+02 0.818E+03   -.477E-01 0.486E-01 0.951E-01   0.942E-04 0.208E-03 -.832E-03
   0.518E+01 0.395E-02 -.774E+03   -.535E+01 -.396E-02 0.773E+03   0.176E+00 -.202E-02 0.885E+00   0.152E-03 0.115E-03 -.900E-03
   0.425E+01 -.205E+02 -.817E+03   -.420E+01 0.205E+02 0.817E+03   -.483E-01 -.414E-01 0.938E-01   0.323E-03 -.123E-03 -.900E-03
   0.218E+01 0.142E+00 -.830E+03   -.217E+01 -.142E+00 0.830E+03   -.128E-01 -.256E-02 0.378E-01   0.201E-03 -.199E-03 -.878E-03
   -.168E+02 0.191E+02 -.843E+03   0.166E+02 -.189E+02 0.843E+03   0.217E+00 -.187E+00 -.231E+00   -.392E-03 0.141E-03 -.716E-03
   -.189E+02 -.670E-01 -.811E+03   0.190E+02 0.674E-01 0.810E+03   -.157E+00 -.634E-02 0.303E+00   -.535E-03 0.482E-04 -.675E-03
   -.167E+02 -.190E+02 -.843E+03   0.165E+02 0.188E+02 0.843E+03   0.217E+00 0.186E+00 -.228E+00   -.735E-03 -.657E-04 -.683E-03
   -.894E+01 0.871E-01 -.838E+03   0.894E+01 -.868E-01 0.838E+03   0.745E-02 -.210E-02 0.558E-01   -.550E-03 -.117E-03 -.814E-03
   -.295E+01 0.958E+01 -.836E+03   0.292E+01 -.959E+01 0.836E+03   0.216E-01 0.138E-01 0.626E-01   -.199E-03 0.135E-03 -.778E-03
   -.551E+01 -.599E-01 -.826E+03   0.549E+01 0.594E-01 0.827E+03   0.242E-01 -.149E-03 0.277E-01   -.335E-03 -.220E-03 -.888E-03
   -.289E+01 -.968E+01 -.836E+03   0.286E+01 0.969E+01 0.836E+03   0.200E-01 -.957E-02 0.624E-01   -.478E-03 -.131E-03 -.748E-03
   -.145E+01 0.148E+00 -.844E+03   0.144E+01 -.148E+00 0.844E+03   0.590E-02 -.322E-02 0.310E-01   -.284E-03 0.217E-03 -.670E-03
   0.793E+01 0.118E+02 -.259E+04   -.793E+01 -.118E+02 0.258E+04   -.121E-02 0.151E-01 0.325E+01   0.584E-04 0.178E-03 -.762E-04
   0.194E+02 0.146E+02 -.258E+04   -.194E+02 -.145E+02 0.257E+04   -.741E-01 -.245E-01 0.323E+01   -.832E-04 -.272E-03 -.210E-03
   0.199E+02 -.147E+02 -.258E+04   -.198E+02 0.147E+02 0.258E+04   -.856E-01 0.233E-01 0.323E+01   -.939E-04 -.459E-04 -.882E-04
   0.793E+01 -.116E+02 -.259E+04   -.793E+01 0.116E+02 0.258E+04   0.158E-02 -.153E-01 0.325E+01   0.613E-04 0.140E-03 0.425E-04
   0.215E+02 0.277E+02 -.258E+04   -.215E+02 -.277E+02 0.257E+04   -.138E-01 -.357E-02 0.328E+01   0.379E-03 0.633E-04 -.354E-03
   0.942E+02 0.694E+02 -.251E+04   -.951E+02 -.699E+02 0.250E+04   0.873E+00 0.518E+00 0.350E+01   0.579E-03 -.116E-03 -.615E-03
   0.936E+02 -.696E+02 -.251E+04   -.945E+02 0.701E+02 0.250E+04   0.872E+00 -.521E+00 0.350E+01   0.764E-03 0.795E-04 -.641E-03
   0.214E+02 -.274E+02 -.257E+04   -.214E+02 0.274E+02 0.257E+04   -.161E-01 0.269E-02 0.328E+01   0.674E-03 -.296E-04 -.391E-03
   -.112E+02 0.395E+02 -.257E+04   0.113E+02 -.393E+02 0.257E+04   -.118E-01 -.158E+00 0.329E+01   -.244E-03 0.943E-04 -.486E-03
   -.920E+02 0.154E+03 -.245E+04   0.919E+02 -.154E+03 0.244E+04   0.132E+00 -.507E-01 0.156E+01   -.152E-03 0.758E-05 -.702E-03
   -.921E+02 -.155E+03 -.245E+04   0.920E+02 0.155E+03 0.244E+04   0.136E+00 0.503E-01 0.158E+01   -.166E-03 0.118E-03 -.839E-03
   -.113E+02 -.387E+02 -.257E+04   0.113E+02 0.386E+02 0.257E+04   -.115E-01 0.152E+00 0.329E+01   -.264E-03 -.231E-03 -.609E-03
   -.177E+02 0.161E+02 -.259E+04   0.177E+02 -.161E+02 0.258E+04   -.131E-01 0.544E-02 0.328E+01   -.188E-03 0.175E-03 -.188E-03
   -.471E+02 0.221E+02 -.256E+04   0.471E+02 -.222E+02 0.256E+04   -.323E-01 0.556E-01 0.333E+01   -.326E-03 -.256E-04 -.300E-03
   -.466E+02 -.226E+02 -.256E+04   0.467E+02 0.227E+02 0.256E+04   -.428E-01 -.512E-01 0.333E+01   -.490E-03 -.211E-04 -.263E-03
   -.176E+02 -.157E+02 -.258E+04   0.176E+02 0.157E+02 0.258E+04   -.936E-02 -.789E-02 0.328E+01   -.464E-03 -.131E-03 -.161E-03
   0.529E+02 -.799E+00 -.138E+04   -.588E+02 0.896E+00 0.136E+04   0.588E+01 -.978E-01 0.275E+02   0.677E-04 -.509E-04 -.185E-03
   -.637E+01 0.403E+00 -.208E+04   0.881E+01 -.522E+00 0.214E+04   -.242E+01 0.125E+00 -.574E+02   0.501E-04 -.165E-04 0.247E-03
   -.546E+01 -.138E-01 0.322E+02   0.242E-12 0.320E-13 -.227E-11   0.545E+01 0.144E-01 -.321E+02   0.119E-03 -.736E-04 -.438E-01

 POSITION                                       TOTAL-FORCE (eV/Angst)
      1.37243      1.37272     12.08691        -0.001629     -0.004045     -0.003520
      1.37242      4.11824     12.08691         0.000779     -0.003949      0.005701
      1.37244      6.86375     12.08691        -0.002446      0.005928     -0.006096
      1.37245      9.60921     12.08690        -0.029294     -0.000556     -0.018459
      4.11796      1.37262     12.08637         0.014393     -0.003250      0.012769
      4.11794      4.11824     12.08633        -0.004634     -0.003588      0.006598
      4.11796      6.86384     12.08637         0.015449      0.004443      0.010502
      4.11799      9.60921     12.08648         0.019481     -0.000277      0.022832
      6.86386      1.37265     12.08647        -0.004180      0.001102      0.008567
      6.86387      4.11824     12.08645         0.005068     -0.002197      0.013625
      6.86386      6.86382     12.08647        -0.003810      0.002827      0.008561
      6.86386      9.60921     12.08654        -0.003076     -0.001484      0.014293
      9.60931      1.37273     12.08697        -0.003904     -0.009647     -0.000207
      9.60929      4.11824     12.08701        -0.011017     -0.002887      0.013493
      9.60931      6.86374     12.08697        -0.005930      0.014321     -0.000970
      9.60933      9.60922     12.08696         0.031163     -0.002050     -0.040922
      0.00013      0.00025     14.04086         0.000297      0.002676      0.010496
     10.98173      2.74436     14.03901        -0.002257     -0.001766      0.004959
     10.98141      5.49174     14.03767         0.000652      0.000525      0.012536
     10.98199      8.23594     14.04116        -0.000086     -0.000009      0.007497
      2.74584      0.00001     14.03709         0.002760      0.000228     -0.004166
      2.74779      2.74345     14.04133        -0.002778      0.002445     -0.007658
      2.74730      5.49160     14.03960         0.000810      0.002204      0.002708
      2.74630      8.23606     14.03666        -0.000860      0.000290     -0.000573
      5.49470      0.00400     14.04495        -0.001980     -0.001452      0.007891
      5.49136      2.74698     14.04628        -0.000411     -0.002908      0.000701
      5.49131      5.48894     14.04495        -0.000425      0.003946      0.008837
      5.49456      8.23247     14.04570        -0.001113      0.001361      0.000985
      8.23501     10.98182     14.03889        -0.002729     -0.000356      0.003364
      8.23174      2.74205     14.04192         0.003060      0.000604     -0.006234
      8.23209      5.49449     14.04076        -0.000212     -0.000339      0.001204
      8.23429      8.23708     14.04026         0.002968     -0.001017     -0.005602
      1.37970      1.37787     15.99255         0.007412      0.004974     -0.002977
      1.37155      4.11825     15.98288        -0.000325     -0.002295     -0.006254
      1.37982      6.85763     15.99108         0.005613      0.000503     -0.002576
      1.37313      9.60941     15.98405         0.005558     -0.002805     -0.002172
      4.12212      1.36933     15.99410         0.000486      0.001160     -0.002883
      4.12453      4.11789     15.98506         0.001741     -0.001910     -0.006587
      4.12231      6.86515     15.99303         0.000480      0.005720     -0.002982
      4.11873      9.60930     15.98503        -0.002008     -0.002198     -0.002296
      6.85129      1.38631     16.01622        -0.002379      0.001632      0.001872
      6.87105      4.11902     15.99356         0.008751     -0.005882     -0.002718
      6.85096      6.84947     16.01560        -0.002735     -0.002090      0.004935
      6.86478      9.61012     15.99170         0.007026     -0.002095      0.000935
      9.60687      1.37112     15.98628        -0.004103      0.002799     -0.001999
      9.61065      4.11840     15.98276         0.000748     -0.000941     -0.006051
      9.60757      6.86435     15.98574        -0.005554      0.002646     -0.002191
      9.60860      9.60991     15.98755        -0.005513     -0.003326     -0.000990
      0.00313      0.00033     17.93894        -0.004335     -0.000058     -0.002703
      0.00283      2.74646     17.94353         0.002475     -0.001143     -0.009882
      0.00529      5.49017     17.94366        -0.007741      0.000722     -0.010648
      0.00219      8.23586     17.93924        -0.000567     -0.000197     -0.008185
      2.74559     10.97690     17.94554         0.000561     -0.003476     -0.006331
      2.73418      2.74691     17.95737         0.003320     -0.000104      0.005876
      2.73444      5.49011     17.95746         0.001104     -0.000620      0.002669
      2.74532      8.24097     17.94136         0.000079      0.003065      0.007081
      5.48921     10.97324     17.95214        -0.000111     -0.001339     -0.001506
      5.49792      2.72560     18.03113        -0.001549      0.000354     -0.004148
      5.49688      5.50757     18.03102         0.002289      0.003403      0.004956
      5.48868      8.24372     17.95171        -0.000253     -0.001597     -0.003812
      8.24181     10.97938     17.94888        -0.003560     -0.001686     -0.009991
      8.25733      2.74565     17.94669         0.003322     -0.000164      0.001812
      8.25911      5.49123     17.94834        -0.004699      0.000184     -0.005757
      8.24058      8.23933     17.94345         0.000345      0.000870      0.007222
      4.67904      4.11471     19.24049        -0.014880     -0.001287     -0.012209
      4.74349      4.11213     20.44490        -0.005110      0.006056     -0.003228
    total drift:                               -0.006531      0.000534      0.012725

  FREE ENERGIE OF THE ION-ELECTRON SYSTEM (eV)
  free  energy   TOTEN  =      -350.81905142 eV

  energy  without entropy=     -350.70670302  energy(sigma->0) =     -350.78160195

 NEB: the previous image is higher in energy: F
 NEB: the next image is higher in energy    : F
 NEB: image is at an extrema
 NEB: diff energy (min, max):     0.044468    0.045813

 NEB: Tangent
     -0.00035     -0.00002     -0.00111
     -0.00037      0.00000     -0.00110
     -0.00035      0.00002     -0.00111
     -0.00033     -0.00000     -0.00114
     -0.00032     -0.00011     -0.00167
     -0.00034      0.00000     -0.00168
     -0.00032      0.00011     -0.00167
     -0.00029     -0.00000     -0.00158
      0.00011     -0.00009     -0.00158
      0.00011      0.00000     -0.00157
      0.00011      0.00009     -0.00158
      0.00012     -0.00000     -0.00153
      0.00008     -0.00000     -0.00105
      0.00005      0.00000     -0.00101
      0.00008      0.00000     -0.00105
      0.00011      0.00000     -0.00108
     -0.00724     -0.00265     -0.00524
     -0.01230      0.00052     -0.00804
     -0.01088     -0.00070     -0.00640
     -0.00752      0.00165     -0.00507
      0.00123     -0.00274     -0.00764
     -0.00165     -0.00152     -0.00434
     -0.00129      0.00145     -0.00365
      0.00128      0.00298     -0.01090
     -0.00418      0.00449      0.00499
     -0.00945      0.00512      0.00489
     -0.00807     -0.00515      0.00542
     -0.00509     -0.00466      0.00413
     -0.00843     -0.00029     -0.00124
     -0.01550      0.00005     -0.00283
     -0.01376     -0.00003     -0.00088
     -0.00994     -0.00046     -0.00220
     -0.02503     -0.01970     -0.03410
     -0.01971     -0.00080     -0.02453
     -0.02297      0.01915     -0.03223
     -0.00303     -0.00135     -0.00838
     -0.00316      0.00550      0.01202
     -0.01198      0.00070      0.03440
     -0.00263     -0.00618      0.01114
     -0.00593     -0.00065     -0.00209
     -0.01595      0.00104      0.01239
     -0.02216      0.00010      0.01457
     -0.01446     -0.00043      0.01254
     -0.00518     -0.00017      0.00133
     -0.01905     -0.00072     -0.00936
     -0.02020     -0.00045     -0.01061
     -0.01719      0.00117     -0.00848
     -0.00710     -0.00070     -0.00479
     -0.00971      0.00023     -0.01033
     -0.02899     -0.00127     -0.01640
     -0.02518     -0.00010     -0.01652
     -0.00589     -0.00065     -0.00682
     -0.01488     -0.00430     -0.00394
     -0.08303     -0.02200     -0.08250
     -0.07847      0.01880     -0.07751
     -0.01197      0.00275     -0.00224
     -0.00982     -0.00962      0.00584
     -0.03271     -0.04523      0.04473
     -0.02633      0.04962      0.04164
     -0.00845      0.01176      0.00443
     -0.00250     -0.00378      0.00289
     -0.00992     -0.00007     -0.00521
     -0.00558     -0.00031     -0.00382
     -0.00004      0.00414      0.00279
      0.77139      0.00852      0.25501
      0.48951      0.00830      0.22006

 NEB: forces: par spring, perp REAL, dneb     0.060807    0.049329    0.000000
 NEB: distance to prev, next image, angle between     0.450518    0.438357  157.660396
 NEB: projections on to tangent (spring, REAL)    -0.060807   -0.018332

 stress matrix after NEB project (eV)
    -37.05129     -0.01456     -0.12666
     -0.01456    -37.14950      0.02757
     -0.12666      0.02757     -4.90944
  FORCES: max atom, RMS     0.015122    0.006478
  FORCE total and by dimension    0.052625    0.013402
  Stress total and by dimension   52.697443   37.149504
 Quasi-Newton relaxation of ions (Broydens 2nd method)
  g(Force)  = 0.320E-03   g(Stress)= 0.000E+00

 Reset! Starting new Quasi-Newton update for ions

 reached required accuracy - stopping structural energy minimisation

 total charge

[...]

 magnetization (x)

# of ion       s       p       d       tot
    1       -0.001  -0.004   0.223   0.219
    2       -0.001  -0.004   0.220   0.215
    3       -0.001  -0.004   0.223   0.219
    4       -0.000  -0.003   0.230   0.227
    5       -0.001  -0.004   0.221   0.217
    6       -0.000  -0.004   0.224   0.220
    7       -0.001  -0.004   0.221   0.217
    8       -0.001  -0.004   0.210   0.206
    9       -0.000  -0.004   0.218   0.214
   10       -0.001  -0.003   0.221   0.217
   11       -0.000  -0.004   0.218   0.214
   12       -0.001  -0.003   0.213   0.208
   13       -0.001  -0.003   0.221   0.217
   14       -0.001  -0.004   0.210   0.205
   15       -0.001  -0.003   0.221   0.217
   16        0.003  -0.004   0.232   0.231
   17       -0.002  -0.006   0.323   0.315
   18       -0.002  -0.006   0.321   0.312
   19       -0.002  -0.006   0.320   0.312
   20       -0.002  -0.006   0.324   0.316
   21       -0.002  -0.006   0.322   0.314
   22       -0.002  -0.006   0.321   0.313
   23       -0.002  -0.006   0.321   0.313
   24       -0.002  -0.006   0.322   0.313
   25       -0.002  -0.006   0.317   0.309
   26       -0.002  -0.006   0.320   0.312
   27       -0.002  -0.006   0.320   0.312
   28       -0.002  -0.006   0.318   0.310
   29       -0.002  -0.006   0.306   0.298
   30       -0.002  -0.006   0.318   0.310
   31       -0.002  -0.006   0.318   0.310
   32       -0.002  -0.006   0.306   0.298
   33       -0.002  -0.006   0.306   0.297
   34       -0.002  -0.006   0.312   0.305
   35       -0.002  -0.006   0.306   0.297
   36       -0.002  -0.006   0.326   0.318
   37       -0.002  -0.006   0.308   0.300
   38       -0.001  -0.006   0.279   0.273
   39       -0.002  -0.006   0.308   0.300
   40       -0.002  -0.006   0.310   0.302
   41       -0.002  -0.006   0.273   0.265
   42       -0.001  -0.006   0.304   0.297
   43       -0.002  -0.006   0.273   0.265
   44       -0.002  -0.006   0.307   0.299
   45       -0.002  -0.006   0.316   0.308
   46       -0.002  -0.006   0.305   0.297
   47       -0.002  -0.006   0.316   0.308
   48       -0.001  -0.006   0.327   0.319
   49       -0.001  -0.003   0.214   0.209
   50       -0.001  -0.004   0.202   0.198
   51       -0.001  -0.004   0.202   0.198
   52       -0.001  -0.003   0.214   0.209
   53       -0.001  -0.003   0.217   0.213
   54       -0.002  -0.003   0.176   0.171
   55       -0.002  -0.003   0.177   0.172
   56       -0.001  -0.003   0.217   0.213
   57       -0.000  -0.004   0.198   0.194
   58       -0.003  -0.004   0.074   0.066
   59       -0.003  -0.004   0.074   0.067
   60       -0.000  -0.004   0.198   0.194
   61       -0.001  -0.003   0.219   0.215
   62       -0.000  -0.003   0.208   0.204
   63       -0.000  -0.003   0.208   0.204
   64       -0.001  -0.003   0.219   0.215
   65        0.001  -0.010   0.000  -0.009
   66       -0.000  -0.017   0.000  -0.017
tot         -0.083  -0.337  16.514  16.094