 vasp.5.4.4.18Apr17-6-g9f103f2a35 (build May 01 2020 14:57:12) complex

 executed on             LinuxIFC date 2022.01.30  16:06:10

 INCAR:
 POTCAR:    PAW_PBE H 15Jun2001
 POTCAR:    PAW_PBE N 08Apr2002
 POTCAR:    PAW_PBE O 08Apr2002
 POTCAR:    PAW_PBE Pd 04Jan2005

 POTCAR:    PAW_PBE H 15Jun2001
   VRHFIN =H: ultrasoft test

   TITEL  = PAW_PBE H 15Jun2001
   POMASS =    1.000; ZVAL   =    1.000    mass and valenz
   ENMAX  =  250.000; ENMIN  =  200.000 eV

 POTCAR:    PAW_PBE N 08Apr2002
   VRHFIN =N: s2p3

   TITEL  = PAW_PBE N 08Apr2002
   POMASS =   14.001; ZVAL   =    5.000    mass and valenz
   ENMAX  =  400.000; ENMIN  =  300.000 eV

 POTCAR:    PAW_PBE O 08Apr2002
   VRHFIN =O: s2p4

   TITEL  = PAW_PBE O 08Apr2002
   POMASS =   16.000; ZVAL   =    6.000    mass and valenz
   ENMAX  =  400.000; ENMIN  =  300.000 eV

 POTCAR:    PAW_PBE Pd 04Jan2005
   VRHFIN =Pd : s1 d9

   TITEL  = PAW_PBE Pd 04Jan2005
   POMASS =  106.420; ZVAL   =   10.000    mass and valenz
   ENMAX  =  250.925; ENMIN  =  188.194 eV

 Optimization of the real space projectors (new method)

 maximal supplied QI-value         = 34.20
 optimisation between [QCUT,QGAM] = [  9.92, 20.18] = [ 27.55,114.04] Ry
 Optimized for a Real-space Cutoff    1.34 Angstroem

   l    n(q)    QCUT    max X(q) W(low)/X(q) W(high)/X(q)  e(spline)
   0      8     9.919    19.460    0.16E-03    0.20E-03    0.36E-06
   0      8     9.919    12.209    0.16E-03    0.20E-03    0.35E-06
   1      8     9.919     4.655    0.19E-03    0.46E-03    0.40E-06
 Optimization of the real space projectors (new method)

[...]

   l    n(q)    QCUT    max X(q) W(low)/X(q) W(high)/X(q)  e(spline)
   0      9    10.150    20.381    0.17E-03    0.18E-03    0.41E-06
   0      9    10.150    15.268    0.18E-03    0.20E-03    0.43E-06
   1      9    10.150     5.964    0.16E-03    0.20E-03    0.36E-06
   1      9    10.150     5.382    0.13E-03    0.16E-03    0.33E-06
 Optimization of the real space projectors (new method)

 maximal supplied QI-value         = 14.36
 optimisation between [QCUT,QGAM] = [ 10.20, 20.39] = [ 29.12,116.47] Ry
 Optimized for a Real-space Cutoff    1.55 Angstroem

   l    n(q)    QCUT    max X(q) W(low)/X(q) W(high)/X(q)  e(spline)
   2      9    10.197    59.108    0.12E-03    0.40E-04    0.11E-06
   2      9    10.197    58.101    0.12E-03    0.39E-04    0.12E-06
   0      9    10.197   102.235    0.41E-04    0.86E-05    0.83E-07
   0      9    10.197    58.388    0.37E-04    0.79E-05    0.78E-07
   1      9    10.197    22.191    0.25E-03    0.13E-03    0.84E-07
   1      9    10.197    15.590    0.21E-03    0.11E-03    0.74E-07
  PAW_PBE H 15Jun2001                   :
  PAW_PBE N 08Apr2002                   :
  PAW_PBE O 08Apr2002                   :
  PAW_PBE Pd 04Jan2005                  :

 POSCAR: H N O Pd
  positions in direct lattice
  velocities in cartesian coordinates
 exchange correlation table for  LEXCH =        8
   RHO(1)=    0.500       N(1)  =     2000
   RHO(2)=  100.500       N(2)  =     4000

 ion  position               nearest neighbor table
   1  0.515  0.145  0.690-   6 0.97
   2  0.285  0.404  0.693-   7 0.98
   3  0.426  0.259  0.692-   6 1.00
   4  0.224  0.281  0.685-   7 0.98
   5  0.374  0.378  0.602-  45 2.00  62 2.00  66 2.01  61 2.03  65 2.05
   6  0.509  0.231  0.682-   1 0.97   3 1.00  65 2.33
   7  0.284  0.321  0.704-   2 0.98   4 0.98
   8  0.125  0.125  0.403-   9 2.75  12 2.75  11 2.75  20 2.75  25 2.75  28 2.75  24 2.75  29 2.77

   9  0.125  0.375  0.403-   8 2.75  10 2.75  13 2.75  21 2.75  25 2.75  26 2.75  30 2.76  29 2.76

[...]

  24  1.000  0.000  0.468-  25 2.74  28 2.74  27 2.74  36 2.74  52 2.75  43 2.75  20 2.75  55 2.75
                            23 2.75   8 2.75  11 2.75  40 2.76
  25  0.000  0.250  0.468-  24 2.74  41 2.75   8 2.75   9 2.75  52 2.75  29 2.75  53 2.75  26 2.75
                            20 2.75  37 2.75  21 2.75  40 2.76
  26  0.000  0.500  0.468-  41 2.74  27 2.74  10 2.75  53 2.75  22 2.75  30 2.75  54 2.75  38 2.75
                            25 2.75   9 2.75  21 2.75  42 2.76
  27  1.000  0.750  0.468-  31 2.74  39 2.74  26 2.74  24 2.74  23 2.75  54 2.75  22 2.75  11 2.75
                            55 2.75  43 2.75  10 2.75  42 2.76
  28  0.250  0.001  0.468-  24 2.74  47 2.74  29 2.75   8 2.75  12 2.75  43 2.75  31 2.75  32 2.75
                            11 2.75  40 2.75  44 2.75  15 2.76
  29  0.251  0.251  0.468-  30 2.73  33 2.73  28 2.75  25 2.75  41 2.75  44 2.75  40 2.75  13 2.75
                            12 2.76   9 2.76   8 2.77  45 2.80
  30  0.251  0.500  0.468-  29 2.73  34 2.74  41 2.75  46 2.75  31 2.75  26 2.75  13 2.76  42 2.76
                            14 2.76   9 2.76  10 2.77  45 2.80
  31  0.250  0.750  0.468-  46 2.74  27 2.74  10 2.75  11 2.75  47 2.75  30 2.75  43 2.75  28 2.75
                            14 2.75  15 2.75  35 2.75  42 2.76
  32  0.500  0.000  0.468-  36 2.74  44 2.75  33 2.75  51 2.75  16 2.75  47 2.75  12 2.75  35 2.75
                            28 2.75  19 2.75  15 2.76  48 2.76
  33  0.500  0.251  0.468-  34 2.73  29 2.73  37 2.75  32 2.75  44 2.75  48 2.75  13 2.75  49 2.75
                            17 2.76  12 2.76  16 2.76  45 2.79
  34  0.500  0.500  0.468-  33 2.73  30 2.74  38 2.75  35 2.75  50 2.75  46 2.75  13 2.76  49 2.76
                            17 2.76  14 2.76  18 2.76  45 2.79
  35  0.500  0.750  0.468-  46 2.74  39 2.74  18 2.75  19 2.75  51 2.75  34 2.75  47 2.75  14 2.75
                            32 2.75  15 2.75  31 2.75  50 2.76
  36  0.750  0.000  0.468-  32 2.74  37 2.74  24 2.74  39 2.75  51 2.75  52 2.75  20 2.75  16 2.75
                            23 2.75  55 2.75  19 2.75  48 2.77
  37  0.750  0.250  0.468-  36 2.74  33 2.75  53 2.75  52 2.75  49 2.75  38 2.75  25 2.75  16 2.75
                            17 2.75  20 2.75  48 2.76  21 2.76
  38  0.750  0.500  0.468-  39 2.74  34 2.75  53 2.75  18 2.75  37 2.75  54 2.75  26 2.75  22 2.75
                            49 2.75  17 2.75  50 2.76  21 2.76
  39  0.750  0.750  0.468-  27 2.74  35 2.74  38 2.74  36 2.75  51 2.75  54 2.75  23 2.75  55 2.75
                            19 2.75  22 2.75  18 2.76  50 2.76
  40  0.125  0.125  0.533-  52 2.75  43 2.75  41 2.75  61 2.75  44 2.75  29 2.75  28 2.75  56 2.75
                            25 2.76  60 2.76  24 2.76  57 2.77
  41  0.124  0.376  0.533-  53 2.73  42 2.74  26 2.74  30 2.75  25 2.75  40 2.75  29 2.75  58 2.77
                            57 2.77  45 2.78  61 2.81  62 2.85
  42  0.125  0.625  0.533-  41 2.74  46 2.74  54 2.75  43 2.75  59 2.75  30 2.76  31 2.76  26 2.76
                            27 2.76  62 2.76  58 2.77  63 2.77
  43  0.125  0.875  0.533-  47 2.74  55 2.74  40 2.75  42 2.75  24 2.75  28 2.75  31 2.75  27 2.75
                            63 2.75  59 2.76  56 2.76  60 2.77
  44  0.376  0.124  0.533-  48 2.73  47 2.74  32 2.75  45 2.75  33 2.75  40 2.75  29 2.75  64 2.75
                            28 2.75  60 2.76  61 2.82  65 2.90
  45  0.377  0.375  0.536-   5 2.00  49 2.74  44 2.75  46 2.77  41 2.78  33 2.79  34 2.79  29 2.80
                            30 2.80  61 2.81  66 2.83  62 2.86  65 2.88
  46  0.375  0.627  0.533-  47 2.73  42 2.74  31 2.74  35 2.74  50 2.74  30 2.75  34 2.75  63 2.77
                            67 2.77  45 2.77  66 2.83  62 2.85
  47  0.375  0.875  0.533-  46 2.73  44 2.74  43 2.74  28 2.74  32 2.75  31 2.75  51 2.75  35 2.75
                            64 2.76  67 2.76  63 2.76  60 2.77
  48  0.624  0.126  0.534-  49 2.73  44 2.73  33 2.75  64 2.75  37 2.76  52 2.76  68 2.76  51 2.76
                            69 2.76  32 2.76  36 2.77  65 2.82
  49  0.626  0.375  0.533-  48 2.73  45 2.74  53 2.74  50 2.75  37 2.75  38 2.75  33 2.75  34 2.76
                            70 2.76  69 2.76  66 2.85  65 2.88
  50  0.625  0.625  0.533-  46 2.74  49 2.75  51 2.75  34 2.75  54 2.75  71 2.75  38 2.76  66 2.76
                            35 2.76  70 2.76  39 2.76  67 2.77
  51  0.625  0.875  0.533-  36 2.75  39 2.75  64 2.75  55 2.75  32 2.75  47 2.75  35 2.75  50 2.75
                            67 2.75  71 2.76  68 2.76  48 2.76
  52  0.875  0.125  0.533-  69 2.74  55 2.74  53 2.75  40 2.75  24 2.75  37 2.75  25 2.75  36 2.75
                            48 2.76  56 2.76  68 2.76  57 2.77
  53  0.875  0.375  0.533-  41 2.73  49 2.74  54 2.74  52 2.75  26 2.75  37 2.75  38 2.75  25 2.75
                            69 2.75  58 2.76  70 2.76  57 2.77
  54  0.875  0.625  0.533-  53 2.74  42 2.75  55 2.75  38 2.75  27 2.75  26 2.75  39 2.75  50 2.75
                            70 2.76  71 2.76  58 2.76  59 2.76
  55  0.875  0.875  0.533-  43 2.74  52 2.74  51 2.75  54 2.75  24 2.75  27 2.75  39 2.75  59 2.75
                            71 2.75  36 2.75  68 2.75  56 2.76
  56  0.000  0.000  0.598-  59 2.74  57 2.75  68 2.75  60 2.75  40 2.75  55 2.76  52 2.76  43 2.76

[...]

  61  0.245  0.247  0.601-   5 2.03  57 2.70  60 2.71  40 2.75  45 2.81  41 2.81  44 2.82  62 2.85
                            65 2.87
  62  0.244  0.506  0.602-   5 2.00  58 2.70  63 2.71  42 2.76  46 2.85  41 2.85  61 2.85  66 2.85
                            45 2.86
  63  0.250  0.752  0.599-  62 2.71  60 2.72  67 2.74  59 2.75  43 2.75  47 2.76  42 2.77  46 2.77

[...]

  65  0.506  0.246  0.605-   5 2.05   6 2.33  69 2.72  64 2.73  48 2.82  66 2.87  61 2.87  45 2.88
                            49 2.88  44 2.90
  66  0.504  0.507  0.602-   5 2.01  67 2.70  70 2.71  50 2.76  46 2.83  45 2.83  49 2.85  62 2.85
                            65 2.87
  67  0.500  0.753  0.599-  66 2.70  64 2.70  63 2.74  71 2.75  51 2.75  47 2.76  50 2.77  46 2.77

[...]

  71  0.750  0.750  0.598-  68 2.74  59 2.74  67 2.75  70 2.75  55 2.75  50 2.75  51 2.76  54 2.76

  LATTYP: Found a simple tetragonal cell.
 ALAT       =    10.9820000000
 C/A-ratio  =     2.7317428519

  Lattice vectors:

 A1 = (  10.9820000000,   0.0000000000,   0.0000000000)
 A2 = (   0.0000000000,  10.9820000000,   0.0000000000)
 A3 = (   0.0000000000,   0.0000000000,  30.0000000000)

Analysis of symmetry for initial positions (statically):
 Subroutine PRICEL returns:
 Original cell was already a primitive cell.

 Routine SETGRP: Setting up the symmetry group for a
 simple tetragonal supercell.

 Subroutine GETGRP returns: Found  1 space group operations
 (whereof  1 operations were pure point group operations)
 out of a pool of 16 trial point group operations.

The static configuration has the point symmetry C_1 .

Analysis of symmetry for dynamics (positions and initial velocities):
 Subroutine PRICEL returns:
 Original cell was already a primitive cell.

[...]

The dynamic configuration has the point symmetry C_1 .

Analysis of constrained symmetry for selective dynamics:
 Subroutine PRICEL returns:
 Original cell was already a primitive cell.

[...]

The constrained configuration has the point symmetry C_1 .

Analysis of structural, dynamic, and magnetic symmetry:
 Subroutine PRICEL returns:
 Original cell was already a primitive cell.

 Routine SETGRP: Setting up the symmetry group for a
 simple tetragonal supercell.

 Subroutine GETGRP returns: Found  1 space group operations
[...]
   -.157E+01 0.759E+00 0.269E+04   0.159E+01 -.763E+00 -.269E+04   0.768E-02 0.279E-02 -.333E+01   -.104E-01 0.618E-02 -.865E-02
   0.394E-01 0.112E+01 0.269E+04   -.621E-01 -.112E+01 -.269E+04   0.298E-03 0.425E-03 -.332E+01   0.188E-01 -.109E-01 -.887E-02
   0.265E+00 -.980E+00 0.269E+04   -.301E+00 0.987E+00 -.269E+04   0.133E-01 0.416E-02 -.326E+01   0.166E-01 -.905E-02 -.946E-02
   0.244E+00 -.987E+00 0.269E+04   -.230E+00 0.990E+00 -.269E+04   -.237E-01 0.771E-03 -.330E+01   0.124E-01 0.112E-01 -.516E-02
   0.321E-01 0.636E+00 0.269E+04   -.471E-01 -.646E+00 -.269E+04   -.191E-02 0.417E-02 -.321E+01   0.155E-01 0.874E-02 -.370E-02
   0.236E+01 0.452E+01 0.973E+03   -.239E+01 -.450E+01 -.973E+03   0.252E-01 -.813E-02 -.310E-01   0.106E-01 -.890E-02 -.134E-01
   0.360E+01 0.208E+01 0.984E+03   -.359E+01 -.211E+01 -.985E+03   -.120E-01 0.375E-01 0.132E-01   0.598E-02 -.842E-02 -.111E-01
   0.343E+01 -.590E+01 0.981E+03   -.343E+01 0.591E+01 -.981E+03   -.496E-02 -.118E-01 -.269E-01   0.699E-02 0.773E-02 0.114E-01
   0.189E+01 -.764E+00 0.970E+03   -.192E+01 0.763E+00 -.970E+03   0.223E-01 -.995E-02 -.226E-02   0.867E-02 0.104E-01 0.674E-02
   0.445E+01 0.570E+01 0.983E+03   -.448E+01 -.568E+01 -.983E+03   0.454E-01 -.576E-02 -.104E-01   -.744E-02 -.108E-01 -.327E-01
   0.518E+01 0.140E+01 0.982E+03   -.516E+01 -.137E+01 -.982E+03   -.105E-01 -.204E-01 -.185E-01   -.534E-02 -.748E-02 -.292E-01
   0.366E+01 -.573E+01 0.977E+03   -.365E+01 0.571E+01 -.977E+03   -.725E-02 0.165E-01 -.529E-01   -.371E-02 0.555E-02 -.343E-02
   0.440E+01 -.151E+01 0.981E+03   -.441E+01 0.149E+01 -.981E+03   0.221E-01 0.818E-02 -.215E-01   -.424E-02 0.103E-01 -.103E-01
   -.357E+01 0.610E+01 0.984E+03   0.362E+01 -.609E+01 -.984E+03   -.382E-01 0.254E-02 -.368E-02   -.938E-02 -.803E-02 -.131E-01
   -.405E+01 0.140E+01 0.988E+03   0.403E+01 -.137E+01 -.988E+03   0.313E-01 -.233E-01 -.475E-01   -.766E-02 -.739E-02 -.227E-02
   -.349E+01 -.663E+01 0.980E+03   0.348E+01 0.661E+01 -.980E+03   0.201E-01 0.843E-02 -.104E-01   -.108E-01 0.557E-02 0.922E-02
   -.329E+01 -.102E+01 0.982E+03   0.335E+01 0.995E+00 -.982E+03   -.436E-01 0.818E-02 0.132E-01   -.973E-02 0.942E-02 -.160E-02
   -.341E+01 0.402E+01 0.973E+03   0.343E+01 -.405E+01 -.973E+03   -.222E-01 0.344E-01 0.560E-02   0.559E-02 -.635E-02 0.331E-02
   -.472E+01 0.159E+01 0.982E+03   0.471E+01 -.162E+01 -.982E+03   -.478E-02 0.358E-01 -.883E-02   0.788E-02 -.719E-02 0.105E-01
   -.372E+01 -.508E+01 0.977E+03   0.370E+01 0.512E+01 -.978E+03   0.640E-02 -.458E-01 -.808E-02   0.784E-02 0.533E-02 0.233E-01
   -.310E+01 -.458E+00 0.970E+03   0.309E+01 0.472E+00 -.970E+03   0.355E-02 -.230E-01 -.219E-01   0.656E-02 0.738E-02 0.125E-01
   0.218E+02 0.206E+02 -.775E+03   -.217E+02 -.206E+02 0.775E+03   -.580E-01 -.187E-01 -.872E-01   -.482E-02 -.206E-02 -.524E-02
   0.240E+02 -.865E+01 -.753E+03   -.243E+02 0.866E+01 0.752E+03   0.354E+00 -.207E-01 0.471E+00   -.719E-02 0.142E-01 0.117E-01
   0.167E+02 -.186E+02 -.791E+03   -.167E+02 0.186E+02 0.791E+03   -.478E-01 0.475E-01 -.751E-01   -.645E-02 0.665E-02 0.114E-01
   0.132E+02 0.628E+01 -.793E+03   -.131E+02 -.627E+01 0.793E+03   -.540E-02 0.680E-02 0.519E-01   -.536E-02 -.155E-01 -.532E-02
   0.257E+01 0.250E+02 -.748E+03   -.253E+01 -.253E+02 0.748E+03   -.515E-01 0.310E+00 0.400E+00   0.114E-01 0.186E-02 0.134E-01
   0.920E+00 -.120E+02 -.680E+03   -.807E+00 0.119E+02 0.680E+03   -.121E+00 0.104E+00 0.237E+00   0.115E-01 0.688E-02 0.330E-01
   0.896E+00 -.223E+02 -.765E+03   -.913E+00 0.227E+02 0.764E+03   0.204E-01 -.375E+00 0.480E+00   0.640E-03 0.105E-02 0.204E-01
   0.296E+01 0.975E+01 -.771E+03   -.298E+01 -.974E+01 0.771E+03   0.210E-01 -.726E-02 0.610E-01   0.167E-02 -.115E-01 0.274E-02
   -.216E+02 0.188E+02 -.775E+03   0.215E+02 -.187E+02 0.775E+03   0.965E-01 -.111E+00 -.650E-01   0.730E-02 0.730E-02 0.359E-01
   -.253E+02 -.108E+02 -.765E+03   0.256E+02 0.107E+02 0.764E+03   -.297E+00 0.867E-01 0.348E+00   0.718E-02 -.261E-02 0.501E-01
   -.171E+02 -.179E+02 -.789E+03   0.171E+02 0.178E+02 0.789E+03   0.225E-01 0.598E-01 -.875E-01   0.813E-02 0.310E-02 0.375E-01
   -.145E+02 0.926E+01 -.783E+03   0.144E+02 -.926E+01 0.783E+03   0.123E-02 0.734E-02 0.476E-01   0.800E-02 -.650E-02 0.199E-01
   -.298E+01 0.141E+02 -.784E+03   0.298E+01 -.141E+02 0.784E+03   0.782E-02 -.962E-02 0.353E-01   -.127E-01 0.493E-02 0.145E-01
   -.107E+01 -.692E+01 -.775E+03   0.105E+01 0.691E+01 0.775E+03   0.230E-01 -.452E-02 0.498E-01   -.800E-02 0.709E-02 0.319E-01
   -.102E+00 -.128E+02 -.796E+03   0.110E+00 0.128E+02 0.796E+03   -.741E-02 0.148E-01 0.426E-01   -.840E-03 0.402E-02 0.305E-01
   -.161E+01 0.580E+01 -.804E+03   0.163E+01 -.579E+01 0.804E+03   -.149E-01 -.105E-02 0.139E-01   -.304E-02 -.156E-01 0.126E-01
   0.203E+02 0.321E+02 -.255E+04   -.202E+02 -.321E+02 0.254E+04   -.152E-01 -.344E-01 0.319E+01   -.149E-01 -.107E-01 0.116E-01
   0.498E+02 0.158E+02 -.252E+04   -.496E+02 -.159E+02 0.252E+04   -.245E+00 0.877E-01 0.295E+01   -.233E-01 0.167E-01 0.183E-01
   0.441E+02 -.341E+02 -.253E+04   -.438E+02 0.342E+02 0.253E+04   -.239E+00 -.877E-01 0.305E+01   -.181E-01 0.733E-02 0.100E-01
   0.177E+02 -.132E+02 -.255E+04   -.177E+02 0.132E+02 0.255E+04   -.235E-01 0.134E-01 0.321E+01   -.161E-01 -.146E-01 0.605E-02
   0.358E+02 0.680E+02 -.251E+04   -.359E+02 -.678E+02 0.251E+04   0.796E-01 -.219E+00 0.306E+01   0.881E-02 -.693E-02 0.202E-01
   0.145E+03 0.118E+03 -.243E+04   -.145E+03 -.118E+03 0.243E+04   0.412E+00 0.122E+00 0.202E+01   0.164E-01 0.177E-01 0.262E-01
   0.123E+03 -.157E+03 -.252E+04   -.123E+03 0.157E+03 0.252E+04   -.449E-01 0.499E-01 0.201E+01   0.866E-02 -.288E-03 0.158E-01
   0.200E+02 -.290E+02 -.254E+04   -.201E+02 0.288E+02 0.254E+04   0.103E+00 0.214E+00 0.307E+01   0.909E-03 -.922E-02 0.103E-01
   -.191E+02 0.813E+02 -.248E+04   0.192E+02 -.814E+02 0.248E+04   -.146E+00 0.835E-01 0.296E+01   0.129E-01 0.534E-02 0.202E-01
   -.130E+03 0.893E+02 -.242E+04   0.130E+03 -.894E+02 0.242E+04   -.552E-01 0.983E-01 0.221E+01   0.154E-01 0.133E-01 0.247E-01
   -.123E+03 -.157E+03 -.252E+04   0.123E+03 0.157E+03 0.252E+04   0.133E+00 -.550E-01 0.238E+01   0.104E-01 -.113E-01 0.201E-01
   -.176E+02 -.209E+02 -.254E+04   0.177E+02 0.208E+02 0.254E+04   -.101E+00 0.121E+00 0.305E+01   0.138E-01 -.966E-02 0.162E-01
   -.362E+02 0.394E+02 -.253E+04   0.362E+02 -.394E+02 0.253E+04   0.579E-01 -.253E-01 0.316E+01   -.813E-02 0.526E-03 0.141E-01
   -.658E+02 0.566E+01 -.250E+04   0.660E+02 -.583E+01 0.250E+04   -.104E+00 0.154E+00 0.328E+01   -.152E-01 0.134E-01 0.195E-01
   -.419E+02 -.366E+02 -.253E+04   0.418E+02 0.367E+02 0.253E+04   0.159E+00 -.145E+00 0.319E+01   -.216E-02 -.294E-02 0.148E-01
   -.201E+02 -.818E+01 -.255E+04   0.200E+02 0.819E+01 0.255E+04   0.218E-01 -.397E-02 0.320E+01   0.131E-02 -.103E-01 0.138E-01
   0.386E+02 0.757E+01 0.353E+02   0.956E-12 0.426E-13 -.146E-10   -.386E+02 -.758E+01 -.357E+02   0.288E-01 0.971E-02 0.381E+00

 POSITION                                       TOTAL-FORCE (eV/Angst)
      5.65488      1.59588     20.70253        -0.001455     -0.006925     -0.000550
      3.13515      4.44056     20.78896        -0.001856     -0.015757      0.011117
      4.68007      2.84269     20.75669        -0.011787     -0.006028      0.005548
      2.45964      3.08439     20.53518         0.000658     -0.002642      0.003702
      4.11192      4.15456     18.06666        -0.003089      0.001205     -0.008043
      5.59023      2.53865     20.46479         0.008039     -0.009120     -0.000585
      3.12155      3.51904     21.11903        -0.006780     -0.003286     -0.001301
      1.37275      1.37275     12.08797        -0.012919     -0.015088     -0.007975
      1.37275      4.11824     12.08797         0.030696      0.007142      0.051076
      1.37275      6.86373     12.08797        -0.017071      0.018457     -0.016454
      1.37275      9.60922     12.08797        -0.016381     -0.002430     -0.024301
      4.11824      1.37275     12.08797        -0.001931      0.026838      0.037033
      4.11824      4.11824     12.08797         0.003114      0.002936     -0.014917
      4.11824      6.86373     12.08797        -0.008053     -0.022804      0.047350
      4.11824      9.60922     12.08797        -0.001497      0.008598      0.024419
      6.86373      1.37275     12.08797         0.026383     -0.016275     -0.017216
      6.86373      4.11824     12.08797        -0.016251      0.003583      0.035364
      6.86373      6.86373     12.08797         0.021740      0.016615     -0.008007
      6.86373      9.60922     12.08797         0.014854      0.005224     -0.021299
      9.60922      1.37275     12.08797        -0.003758     -0.010262     -0.021782
      9.60922      4.11824     12.08797        -0.006327      0.002880      0.027264
      9.60922      6.86373     12.08797         0.003034      0.014997     -0.021161
      9.60922      9.60922     12.08797        -0.001329      0.002303     -0.041267
     10.98132      0.00024     14.03955         0.001168      0.000231      0.003998
      0.00378      2.74299     14.03609         0.000832     -0.000764     -0.001961
      0.00243      5.49505     14.03701         0.000479      0.002828      0.000360
     10.98001      8.23837     14.03865         0.002247     -0.000038      0.000953
      2.74273      0.00576     14.03836        -0.000914     -0.000738     -0.000628
      2.75436      2.75244     14.05129         0.000082     -0.001818     -0.005397
      2.75271      5.48609     14.05144         0.001197     -0.000077     -0.001568
      2.74098      8.23567     14.03627         0.000630     -0.001886     -0.002314
      5.49490      0.00544     14.03899         0.000352      0.001936     -0.000563
      5.48849      2.75196     14.04627         0.003351     -0.001733     -0.000892
      5.48758      5.48573     14.04943         0.001295      0.000025      0.000963
      5.49434      8.23580     14.03588         0.001099     -0.001684     -0.002109
      8.23648      0.00195     14.03971        -0.000530      0.001029     -0.000329
      8.23450      2.74414     14.04084        -0.000828      0.000193     -0.003131
      8.23298      5.49439     14.04076        -0.000928     -0.000850      0.000051
      8.23731      8.23764     14.04009        -0.001176     -0.001210     -0.003899
      1.37790      1.37820     15.99755         0.001729      0.002566     -0.002978
      1.35760      4.12522     15.98364         0.000703      0.001420     -0.003374
      1.37653      6.86306     16.00121        -0.000018      0.000927     -0.003704
      1.37386      9.61178     15.98715         0.002176      0.000772      0.000582
      4.12804      1.36666     15.99128        -0.001233      0.001592     -0.000121
      4.13869      4.11404     16.06532         0.001440     -0.002215      0.018058
      4.11504      6.88573     15.98413         0.004607     -0.003118      0.002617
      4.11542      9.61305     15.97683         0.000856      0.000085     -0.000743
      6.85497      1.38954     16.00586         0.000066      0.001818      0.000744
      6.87524      4.11392     15.99854         0.000434     -0.001097      0.000750
      6.85838      6.86101     15.99870        -0.000201      0.000544     -0.000129
      6.86464      9.61222     15.98167         0.001887      0.000203     -0.001951
      9.61215      1.37439     15.98534        -0.000737      0.002250     -0.000645
      9.61238      4.12017     15.98086         0.001053      0.000096     -0.003567
      9.61092      6.86353     15.98757        -0.000971      0.000635      0.000192
      9.61119      9.61126     15.99079        -0.002755     -0.002024      0.000515
      0.00119      0.00313     17.94793        -0.000545     -0.000443     -0.006610
     10.97488      2.74864     17.96182        -0.004373      0.000753     -0.001524
     10.96540      5.49142     17.96079        -0.002425      0.000555     -0.004601
     10.97988      8.24091     17.94721         0.000150     -0.002629     -0.003340
      2.75175     10.98130     17.95617        -0.000450     -0.001117     -0.001162
      2.68728      2.70688     18.01633         0.000654      0.009490     -0.001985
      2.68407      5.55984     18.05647         0.006480     -0.005268     -0.001882
      2.74492      8.26224     17.95746        -0.000010      0.002938     -0.000478
      5.49518     10.96574     17.94089        -0.002709     -0.002829     -0.004566
      5.55800      2.70266     18.13853        -0.008701      0.003747      0.004447
      5.53873      5.57298     18.04608        -0.006209     -0.008915     -0.001436
      5.48936      8.26724     17.95496         0.000824      0.001928     -0.002103
      8.23733     10.98186     17.94528        -0.000044      0.000277     -0.002770
      8.27120      2.74261     17.94855         0.001597      0.001039      0.002035
      8.24859      5.49220     17.95413         0.001403     -0.001468     -0.001861
      8.23631      8.24027     17.94292        -0.001066      0.001880      0.000043
    total drift:                                0.004259     -0.002411     -0.001376

  FREE ENERGIE OF THE ION-ELECTRON SYSTEM (eV)
  free  energy   TOTEN  =      -373.91914047 eV

  energy  without entropy=     -373.79554758  energy(sigma->0) =     -373.87794284

 d Force = 0.4340810E-04[ 0.215E-04, 0.653E-04]  d Energy = 0.4703312E-04-0.363E-05
 d Force =-0.1626391E+01[-0.163E+01,-0.163E+01]  d Ewald  =-0.1626391E+01-0.490E-07

 reached required accuracy - stopping structural energy minimisation

 total charge

[...]

 magnetization (x)

# of ion       s       p       d       tot
    1       -0.000   0.000   0.000   0.000
    2       -0.000  -0.000   0.000  -0.000
    3       -0.000   0.000   0.000  -0.000
    4       -0.000  -0.000   0.000  -0.000
    5        0.001  -0.011   0.000  -0.010
    6        0.000   0.003   0.000   0.003
    7       -0.000  -0.000   0.000  -0.000
    8       -0.000  -0.004   0.196   0.192
    9       -0.001  -0.003   0.197   0.193
   10       -0.000  -0.004   0.196   0.193
   11       -0.001  -0.003   0.214   0.209
   12       -0.001  -0.003   0.199   0.195
   13        0.000  -0.003   0.206   0.204
   14       -0.001  -0.003   0.197   0.193
   15       -0.001  -0.004   0.188   0.183
   16       -0.000  -0.003   0.200   0.196
   17       -0.001  -0.003   0.199   0.196
   18       -0.000  -0.004   0.197   0.193
   19       -0.001  -0.003   0.214   0.209
   20       -0.001  -0.003   0.214   0.209
   21       -0.001  -0.004   0.188   0.184
   22       -0.001  -0.003   0.213   0.209
   23        0.002  -0.004   0.242   0.240
   24       -0.002  -0.006   0.308   0.300
   25       -0.002  -0.006   0.285   0.277
   26       -0.002  -0.006   0.286   0.279
   27       -0.002  -0.006   0.310   0.303
   28       -0.002  -0.006   0.287   0.280
   29       -0.002  -0.005   0.269   0.262
   30       -0.001  -0.005   0.269   0.263
   31       -0.002  -0.006   0.287   0.279
   32       -0.002  -0.006   0.287   0.280
   33       -0.002  -0.005   0.267   0.260
   34       -0.002  -0.005   0.271   0.264
   35       -0.002  -0.006   0.283   0.276
   36       -0.001  -0.006   0.314   0.306
   37       -0.002  -0.006   0.288   0.280
   38       -0.002  -0.006   0.285   0.278
   39       -0.002  -0.006   0.309   0.301
   40       -0.002  -0.005   0.256   0.249
   41       -0.001  -0.005   0.253   0.247
   42       -0.002  -0.005   0.261   0.254
   43       -0.002  -0.006   0.293   0.286
   44       -0.001  -0.005   0.256   0.250
   45       -0.002  -0.005   0.061   0.054
   46       -0.001  -0.005   0.255   0.249
   47       -0.002  -0.006   0.269   0.262
   48       -0.002  -0.005   0.264   0.256
   49       -0.001  -0.005   0.257   0.251
   50       -0.002  -0.005   0.258   0.251
   51       -0.002  -0.006   0.292   0.285
   52       -0.002  -0.006   0.293   0.285
   53       -0.002  -0.006   0.269   0.262
   54       -0.002  -0.006   0.293   0.286
   55       -0.001  -0.006   0.309   0.302
   56       -0.000  -0.003   0.200   0.197
   57       -0.001  -0.003   0.173   0.169
   58       -0.001  -0.003   0.173   0.169
   59       -0.000  -0.003   0.203   0.200
   60       -0.001  -0.003   0.172   0.168
   61       -0.002  -0.003   0.057   0.052
   62       -0.002  -0.003   0.049   0.045
   63       -0.000  -0.003   0.173   0.170
   64       -0.001  -0.003   0.180   0.176
   65       -0.002  -0.003   0.066   0.061
   66       -0.002  -0.003   0.057   0.052
   67       -0.001  -0.003   0.174   0.171
   68       -0.001  -0.003   0.201   0.197
   69       -0.001  -0.003   0.186   0.182
   70       -0.001  -0.003   0.177   0.173
   71       -0.000  -0.003   0.203   0.200
tot         -0.074  -0.286  14.450  14.090