 vasp.5.4.4.18Apr17-6-g9f103f2a35 (build Jun 11 2020 13:42:08) complex

 executed on             LinuxIFC date 2021.11.09  17:33:08

 INCAR:
 POTCAR:    PAW_PBE Cu 22Jun2005
 POTCAR:    PAW_PBE N 08Apr2002
 POTCAR:    PAW_PBE O 08Apr2002
 POTCAR:    PAW_PBE H 15Jun2001

 POTCAR:    PAW_PBE Cu 22Jun2005
   VRHFIN =Cu: d10 p1

   TITEL  = PAW_PBE Cu 22Jun2005
   POMASS =   63.546; ZVAL   =   11.000    mass and valenz
   ENMAX  =  295.446; ENMIN  =  221.585 eV

 POTCAR:    PAW_PBE N 08Apr2002
   VRHFIN =N: s2p3

   TITEL  = PAW_PBE N 08Apr2002
   POMASS =   14.001; ZVAL   =    5.000    mass and valenz
   ENMAX  =  400.000; ENMIN  =  300.000 eV

 POTCAR:    PAW_PBE O 08Apr2002
   VRHFIN =O: s2p4

   TITEL  = PAW_PBE O 08Apr2002
   POMASS =   16.000; ZVAL   =    6.000    mass and valenz
   ENMAX  =  400.000; ENMIN  =  300.000 eV

 POTCAR:    PAW_PBE H 15Jun2001
   VRHFIN =H: ultrasoft test

   TITEL  = PAW_PBE H 15Jun2001
   POMASS =    1.000; ZVAL   =    1.000    mass and valenz
   ENMAX  =  250.000; ENMIN  =  200.000 eV

 Optimization of the real space projectors (new method)

 maximal supplied QI-value         = 16.25
 optimisation between [QCUT,QGAM] = [ 10.24, 20.48] = [ 29.35,117.42] Ry
 Optimized for a Real-space Cutoff    1.55 Angstroem

   l    n(q)    QCUT    max X(q) W(low)/X(q) W(high)/X(q)  e(spline)
   2      9    10.239     4.610    0.85E-04    0.29E-03    0.14E-06
   2      9    10.239     8.522    0.15E-03    0.50E-03    0.27E-06
   0     10    10.239    51.609    0.45E-04    0.99E-04    0.10E-06
   0     10    10.239    27.747    0.40E-04    0.93E-04    0.97E-07
   1      9    10.239    20.408    0.15E-03    0.78E-05    0.15E-06
   1      9    10.239    13.425    0.13E-03    0.71E-05    0.14E-06
 Optimization of the real space projectors (new method)

[...]

   l    n(q)    QCUT    max X(q) W(low)/X(q) W(high)/X(q)  e(spline)
   0      9    10.150    20.381    0.17E-03    0.18E-03    0.41E-06
   0      9    10.150    15.268    0.18E-03    0.20E-03    0.43E-06
   1      9    10.150     5.964    0.16E-03    0.20E-03    0.36E-06
   1      9    10.150     5.382    0.13E-03    0.16E-03    0.33E-06
 Optimization of the real space projectors (new method)

 maximal supplied QI-value         = 34.20
 optimisation between [QCUT,QGAM] = [  9.92, 20.18] = [ 27.55,114.04] Ry
 Optimized for a Real-space Cutoff    1.34 Angstroem

   l    n(q)    QCUT    max X(q) W(low)/X(q) W(high)/X(q)  e(spline)
   0      8     9.919    19.460    0.16E-03    0.20E-03    0.36E-06
   0      8     9.919    12.209    0.16E-03    0.20E-03    0.35E-06
   1      8     9.919     4.655    0.19E-03    0.46E-03    0.40E-06
  PAW_PBE Cu 22Jun2005                  :
  PAW_PBE N 08Apr2002                   :
  PAW_PBE O 08Apr2002                   :
  PAW_PBE H 15Jun2001                   :

 POSCAR: Cu N O H
  positions in direct lattice
  velocities in cartesian coordinates
 exchange correlation table for  LEXCH =        8
   RHO(1)=    0.500       N(1)  =     2000
   RHO(2)=  100.500       N(2)  =     4000

 VTST: version 3.1, (03/28/14)

 CHAIN: initializing optimizer

 OPT: Using VASP QUASI-newton optimizer
 CHAIN: Read ICHAIN            0
 CHAIN: Running the NEB
 NEB:          SPRING     -5.000000
 NEB:          LCLIMB      T
 NEB:     LTANGENTOLD      F
 NEB:           LDNEB      F
 NEB:        LDNEBORG      F
 NEB:        LNEBCELL      F
 NEB:          EFIRST   -258.919206
 NEB:           ELAST   -259.483362

 POSCAR: Cu N O H
  positions in direct lattice

 POSCAR: Cu N O H
  positions in direct lattice

 ion  position               nearest neighbor table
   1  0.125  0.125  0.410-  18 2.51  17 2.52  22 2.52  13 2.52   4 2.52   2 2.52   5 2.52  21 2.53

   2  0.125  0.375  0.410-  19 2.52  18 2.52  22 2.52  23 2.52  14 2.52   1 2.52   3 2.52   6 2.52

[...]

  17  0.000  1.000  0.469-   4 2.52   1 2.52  16 2.52  13 2.52  20 2.52  18 2.52  21 2.52  29 2.53
                            45 2.53  36 2.55  48 2.55  33 2.55
  18  0.000  0.250  0.469-   1 2.51   2 2.52  13 2.52  14 2.52  17 2.52  22 2.52  30 2.53  19 2.53
                            46 2.54  45 2.54  34 2.54  33 2.55
  19  0.000  0.500  0.469-   3 2.51   2 2.52  15 2.52  14 2.52  20 2.52  23 2.52  31 2.53  18 2.53
                            46 2.54  47 2.54  34 2.54  35 2.55
  20  0.000  0.750  0.469-   4 2.52   3 2.52  16 2.52  15 2.52  19 2.52  17 2.52  24 2.52  32 2.53
                            47 2.53  36 2.55  48 2.55  35 2.55
  21  0.251  0.000  0.470-  25 2.52  22 2.52   5 2.52   8 2.52  24 2.52  17 2.52   1 2.53   4 2.53
                            40 2.54  33 2.54  36 2.55  37 2.58
  22  0.250  0.250  0.469-   5 2.51   1 2.52   6 2.52  21 2.52   2 2.52  26 2.52  18 2.52  23 2.53
                            34 2.54  38 2.54  33 2.54  37 2.56
  23  0.250  0.500  0.469-   7 2.51   3 2.52   6 2.52  24 2.52   2 2.52  27 2.52  19 2.52  22 2.53
                            34 2.54  38 2.54  35 2.54  39 2.56
  24  0.251  0.750  0.470-  28 2.52  23 2.52   7 2.52   8 2.52  21 2.52  20 2.52   3 2.53   4 2.53
                            40 2.54  35 2.54  36 2.55  39 2.58
  25  0.500  0.000  0.470-  21 2.52  26 2.52   5 2.52  29 2.52   8 2.52  28 2.52   9 2.53  12 2.53
                            40 2.54  44 2.55  41 2.55  37 2.57
  26  0.500  0.250  0.469-   9 2.51   5 2.52  10 2.52  25 2.52  30 2.52   6 2.52  22 2.52  38 2.53
                            27 2.53  41 2.55  42 2.55  37 2.55
  27  0.500  0.500  0.469-  11 2.51  10 2.52   7 2.52  28 2.52  31 2.52   6 2.52  23 2.52  38 2.53
                            26 2.53  43 2.55  42 2.55  39 2.55
  28  0.500  0.750  0.470-  24 2.52  27 2.52   7 2.52  32 2.52   8 2.52  25 2.52  11 2.53  12 2.53
                            40 2.54  44 2.55  43 2.55  39 2.57
  29  0.750  1.000  0.469-  12 2.52  16 2.52  32 2.52   9 2.52  13 2.52  25 2.52  30 2.52  17 2.53
                            45 2.54  44 2.55  48 2.55  41 2.56
  30  0.750  0.250  0.469-  14 2.52  13 2.52  26 2.52  10 2.52   9 2.52  31 2.52  29 2.52  18 2.53
                            46 2.54  45 2.55  41 2.55  42 2.55
  31  0.750  0.500  0.469-  14 2.52  15 2.52  27 2.52  10 2.52  11 2.52  30 2.52  32 2.52  19 2.53
                            46 2.54  47 2.55  43 2.55  42 2.55
  32  0.750  0.750  0.469-  12 2.52  16 2.52  29 2.52  11 2.52  15 2.52  28 2.52  31 2.52  20 2.53
                            47 2.54  44 2.55  48 2.55  43 2.56
  33  0.126  0.125  0.530-  54 2.50  53 2.52  50 2.52  34 2.52  49 2.52  37 2.52  36 2.52  45 2.53
                            21 2.54  22 2.54  18 2.55  17 2.55
  34  0.126  0.375  0.529-  54 2.52  55 2.52  35 2.52  33 2.52  38 2.53  46 2.53  50 2.53  51 2.53
                            23 2.54  22 2.54  18 2.54  19 2.54
  35  0.126  0.625  0.530-  55 2.50  56 2.52  51 2.52  34 2.52  52 2.52  39 2.52  36 2.53  47 2.53
                            24 2.54  23 2.54  19 2.55  20 2.55
  36  0.125  0.875  0.530-  52 2.52  53 2.52  49 2.52  56 2.52  40 2.52  48 2.52  33 2.52  35 2.53
                            21 2.55  24 2.55  20 2.55  17 2.55
  37  0.376  0.128  0.531-  38 2.50  41 2.51  57 2.52  54 2.52  53 2.52  33 2.52  40 2.55  26 2.55
                            58 2.55  22 2.56  25 2.57  21 2.58
  38  0.376  0.375  0.529-  39 2.50  37 2.50  42 2.50  34 2.53  26 2.53  27 2.53  23 2.54  22 2.54
                            54 2.58  55 2.58  58 2.64  59 2.64
  39  0.376  0.622  0.531-  38 2.50  43 2.51  60 2.52  55 2.52  56 2.52  35 2.52  40 2.55  27 2.55
                            59 2.55  23 2.56  28 2.57  24 2.58
  40  0.375  0.875  0.530-  57 2.52  60 2.52  56 2.52  53 2.52  44 2.52  36 2.52  28 2.54  24 2.54
                            21 2.54  25 2.54  39 2.55  37 2.55
  41  0.625  0.126  0.530-  37 2.51  58 2.51  42 2.51  62 2.52  61 2.52  57 2.52  44 2.53  45 2.53
                            26 2.55  30 2.55  25 2.55  29 2.56
  42  0.624  0.375  0.530-  38 2.50  43 2.51  41 2.51  62 2.53  63 2.53  46 2.54  26 2.55  27 2.55
                            30 2.55  31 2.55  58 2.56  59 2.56
  43  0.625  0.624  0.530-  39 2.51  59 2.51  42 2.51  63 2.51  64 2.52  60 2.52  44 2.53  47 2.53
                            27 2.55  31 2.55  28 2.55  32 2.56
  44  0.625  0.875  0.530-  57 2.52  60 2.52  64 2.52  61 2.52  40 2.52  48 2.52  41 2.53  43 2.53
                            32 2.55  29 2.55  28 2.55  25 2.55
  45  0.876  0.124  0.530-  62 2.50  48 2.52  50 2.52  49 2.52  33 2.53  61 2.53  46 2.53  41 2.53
                            17 2.53  29 2.54  18 2.54  30 2.55
  46  0.876  0.375  0.529-  63 2.50  62 2.50  50 2.52  51 2.52  34 2.53  47 2.53  45 2.53  18 2.54
                            19 2.54  31 2.54  30 2.54  42 2.54
  47  0.876  0.626  0.530-  63 2.50  48 2.52  51 2.52  52 2.52  35 2.53  64 2.53  46 2.53  43 2.53
                            20 2.53  32 2.54  19 2.54  31 2.55
  48  0.875  0.875  0.530-  45 2.52  47 2.52  64 2.52  61 2.52  49 2.52  52 2.52  44 2.52  36 2.52
                            29 2.55  32 2.55  20 2.55  17 2.55
  49  0.000  0.000  0.589-  36 2.52  48 2.52  53 2.52  45 2.52  50 2.52  33 2.52  52 2.53  61 2.53

[...]

  54  0.246  0.249  0.590-  67 1.76  50 2.49  33 2.50  53 2.52  37 2.52  34 2.52  55 2.54  38 2.58
                            58 2.63
  55  0.246  0.501  0.590-  67 1.76  51 2.49  35 2.50  56 2.52  39 2.52  34 2.52  54 2.54  38 2.58
                            59 2.63
  56  0.250  0.750  0.589-  35 2.52  55 2.52  36 2.52  40 2.52  52 2.52  53 2.52  39 2.52  60 2.52

[...]

  58  0.506  0.246  0.592-  65 2.03  57 2.49  62 2.50  41 2.51  37 2.55  42 2.56  59 2.61  54 2.63
                            38 2.64
  59  0.506  0.504  0.592-  65 2.03  60 2.49  63 2.50  43 2.51  39 2.55  42 2.56  58 2.61  55 2.63
                            38 2.64
  60  0.500  0.751  0.589-  59 2.49  57 2.51  39 2.52  40 2.52  44 2.52  56 2.52  64 2.52  43 2.52

[...]

  65  0.444  0.375  0.639-  66 1.22  58 2.03  59 2.03
  66  0.462  0.375  0.680-  65 1.22
  67  0.305  0.375  0.625-  54 1.76  55 1.76

  LATTYP: Found a simple tetragonal cell.
 ALAT       =    10.0912000000
 C/A-ratio  =     2.9728872681

  Lattice vectors:

 A1 = (  10.0912000000,   0.0000000000,   0.0000000000)
 A2 = (   0.0000000000,  10.0912000000,   0.0000000000)
 A3 = (   0.0000000000,   0.0000000000,  30.0000000000)

Analysis of symmetry for initial positions (statically):
 Subroutine PRICEL returns:
 Original cell was already a primitive cell.

 Routine SETGRP: Setting up the symmetry group for a
 simple tetragonal supercell.

 Subroutine GETGRP returns: Found  1 space group operations
 (whereof  1 operations were pure point group operations)
 out of a pool of 16 trial point group operations.

The static configuration has the point symmetry C_1 .

Analysis of symmetry for dynamics (positions and initial velocities):
 Subroutine PRICEL returns:
 Original cell was already a primitive cell.

[...]

The dynamic configuration has the point symmetry C_1 .

Analysis of constrained symmetry for selective dynamics:
 Subroutine PRICEL returns:
 Original cell was already a primitive cell.

[...]

The constrained configuration has the point symmetry C_1 .

Analysis of structural, dynamic, and magnetic symmetry:
[...]
   0.395E+01 -.593E-01 -.117E+04   -.395E+01 0.594E-01 0.117E+04   -.102E-01 0.345E-03 0.124E+00   -.355E-03 -.210E-04 -.188E-02
   0.698E+01 -.271E+02 -.124E+04   -.703E+01 0.269E+02 0.124E+04   0.491E-01 0.208E+00 0.267E+00   -.324E-03 0.190E-03 -.187E-02
   0.517E+01 0.352E-01 -.123E+04   -.514E+01 -.356E-01 0.123E+04   -.267E-01 0.476E-03 0.370E+00   -.327E-03 -.207E-04 -.160E-02
   -.139E+02 0.249E+02 -.122E+04   0.136E+02 -.245E+02 0.122E+04   0.332E+00 -.440E+00 0.940E-01   0.214E-03 -.284E-03 -.210E-02
   -.156E+02 -.404E-01 -.120E+04   0.154E+02 0.403E-01 0.120E+04   0.137E+00 0.620E-03 0.375E+00   0.305E-03 -.181E-04 -.210E-02
   -.138E+02 -.249E+02 -.122E+04   0.135E+02 0.245E+02 0.122E+04   0.331E+00 0.440E+00 0.953E-01   0.243E-03 0.323E-03 -.215E-02
   -.787E+01 0.433E-01 -.124E+04   0.797E+01 -.434E-01 0.124E+04   -.101E+00 0.273E-03 0.453E+00   0.123E-03 -.217E-04 -.176E-02
   -.448E+01 0.156E+02 -.122E+04   0.452E+01 -.157E+02 0.122E+04   -.442E-01 0.168E+00 0.544E+00   0.233E-03 -.236E-04 -.193E-02
   -.635E+01 -.906E-02 -.120E+04   0.635E+01 0.891E-02 0.120E+04   -.104E-01 0.257E-03 0.415E+00   0.302E-03 0.133E-04 -.179E-02
   -.448E+01 -.156E+02 -.122E+04   0.452E+01 0.158E+02 0.122E+04   -.442E-01 -.169E+00 0.543E+00   0.219E-03 0.213E-04 -.191E-02
   -.345E+01 0.378E-01 -.125E+04   0.338E+01 -.381E-01 0.125E+04   0.685E-01 0.436E-03 0.111E+00   0.249E-03 -.115E-04 -.174E-02
   0.925E+01 0.180E+02 -.382E+04   -.924E+01 -.181E+02 0.381E+04   -.112E-01 0.971E-01 0.352E+01   0.608E-04 -.928E-04 -.171E-02
   0.186E+02 0.173E+02 -.379E+04   -.187E+02 -.176E+02 0.379E+04   0.129E+00 0.287E+00 0.341E+01   0.220E-03 0.727E-04 -.173E-02
   0.186E+02 -.173E+02 -.379E+04   -.187E+02 0.176E+02 0.379E+04   0.129E+00 -.288E+00 0.341E+01   0.204E-03 -.625E-04 -.173E-02
   0.928E+01 -.179E+02 -.382E+04   -.927E+01 0.180E+02 0.381E+04   -.122E-01 -.966E-01 0.352E+01   0.550E-04 0.820E-04 -.172E-02
   0.220E+02 0.356E+02 -.380E+04   -.221E+02 -.355E+02 0.379E+04   0.129E+00 -.133E+00 0.352E+01   -.129E-03 -.774E-04 -.168E-02
   0.743E+02 0.780E+02 -.371E+04   -.757E+02 -.781E+02 0.370E+04   0.130E+01 0.555E-01 0.298E+01   -.336E-03 -.190E-03 -.161E-02
   0.743E+02 -.781E+02 -.371E+04   -.756E+02 0.781E+02 0.370E+04   0.130E+01 -.555E-01 0.298E+01   -.392E-03 0.183E-03 -.162E-02
   0.220E+02 -.356E+02 -.380E+04   -.221E+02 0.354E+02 0.379E+04   0.129E+00 0.134E+00 0.352E+01   -.133E-03 0.840E-04 -.169E-02
   -.542E+01 0.504E+02 -.379E+04   0.554E+01 -.505E+02 0.378E+04   -.119E+00 0.834E-01 0.340E+01   -.157E-03 -.862E-04 -.164E-02
   -.502E+02 0.131E+03 -.366E+04   0.509E+02 -.133E+03 0.366E+04   -.702E+00 0.256E+01 0.253E+01   -.870E-04 -.426E-03 -.171E-02
   -.501E+02 -.131E+03 -.366E+04   0.508E+02 0.133E+03 0.366E+04   -.707E+00 -.256E+01 0.254E+01   -.731E-04 0.377E-03 -.172E-02
   -.543E+01 -.504E+02 -.379E+04   0.555E+01 0.505E+02 0.378E+04   -.119E+00 -.827E-01 0.340E+01   -.156E-03 0.145E-03 -.167E-02
   -.256E+02 0.253E+02 -.381E+04   0.256E+02 -.253E+02 0.380E+04   -.187E-01 0.639E-01 0.351E+01   0.221E-03 -.123E-03 -.166E-02
   -.566E+02 0.249E+02 -.375E+04   0.570E+02 -.252E+02 0.375E+04   -.402E+00 0.268E+00 0.348E+01   0.332E-03 -.723E-04 -.166E-02
   -.566E+02 -.250E+02 -.375E+04   0.570E+02 0.253E+02 0.375E+04   -.400E+00 -.267E+00 0.347E+01   0.398E-03 0.811E-04 -.168E-02
   -.256E+02 -.252E+02 -.381E+04   0.256E+02 0.253E+02 0.380E+04   -.183E-01 -.644E-01 0.351E+01   0.229E-03 0.114E-03 -.168E-02
   0.484E+02 -.289E+00 -.195E+04   -.487E+02 0.328E+00 0.193E+04   0.258E+00 -.386E-01 0.272E+02   -.350E-03 -.400E-04 -.816E-03
   -.392E+02 0.256E+00 -.265E+04   0.476E+02 -.314E+00 0.270E+04   -.835E+01 0.589E-01 -.553E+02   -.154E-03 -.123E-04 -.834E-04
   0.281E+02 -.203E-01 -.423E+03   -.284E+02 0.210E-01 0.424E+03   0.377E+00 -.290E-03 -.645E+00   -.926E-04 -.377E-05 -.138E-03
   0.679E+01 -.143E-01 0.330E+02   -.639E-12 -.131E-12 0.909E-11   -.679E+01 0.148E-01 -.329E+02   -.367E-03 -.421E-04 -.757E-01

 POSITION                                       TOTAL-FORCE (eV/Angst)
      1.26023      1.26118     12.30300         0.012850     -0.006506     -0.013457
      1.26021      3.78419     12.30289         0.015575      0.000286     -0.000300
      1.26024      6.30722     12.30298         0.013108      0.005713     -0.013206
      1.26024      8.82980     12.30294         0.026143      0.000115      0.024901
      3.78391      1.26087     12.30033         0.011159      0.002127      0.015626
      3.78395      3.78419     12.29989         0.016552      0.000273      0.038688
      3.78391      6.30753     12.30031         0.010933     -0.003142      0.015753
      3.78388      8.82980     12.30070         0.006830      0.000174      0.013291
      6.30853      1.26103     12.30152        -0.005557     -0.014758     -0.010910
      6.30863      3.78419     12.30129        -0.018359      0.000095      0.010728
      6.30854      6.30737     12.30149        -0.005426      0.014101     -0.010936
      6.30845      8.82980     12.30165        -0.011636      0.000143      0.027802
      8.83051      1.26135     12.30419        -0.004823     -0.006467      0.001656
      8.83052      3.78419     12.30427         0.006486      0.000249     -0.009852
      8.83051      6.30705     12.30417        -0.004856      0.005887      0.001801
      8.83050      8.82980     12.30389        -0.011890      0.000133      0.018256
      0.00395     10.09059     14.08086         0.002816     -0.000145     -0.010894
      0.00279      2.52105     14.07830         0.001658     -0.001327     -0.011443
      0.00285      5.04733     14.07819         0.001067      0.001095     -0.010812
      0.00395      7.56894     14.08095         0.003389      0.000024     -0.011218
      2.52838      0.00008     14.08645         0.004796     -0.000365     -0.009674
      2.52738      2.51931     14.07707         0.002109     -0.001491     -0.009137
      2.52736      5.04891     14.07739         0.002894      0.002489     -0.011973
      2.52845      7.56816     14.08633         0.003801      0.000234     -0.009300
      5.04350      0.00062     14.08690        -0.000492      0.000219     -0.008815
      5.04977      2.51825     14.07598         0.003659     -0.002879     -0.010331
      5.04978      5.05003     14.07584         0.003131      0.002633     -0.009129
      5.04347      7.56761     14.08694        -0.000404     -0.000354     -0.009073
      7.56672     10.08951     14.08253        -0.000713     -0.001177     -0.010203
      7.56822      2.52295     14.08056        -0.000029      0.000245     -0.008289
      7.56825      5.04540     14.08070        -0.000089     -0.000399     -0.009599
      7.56669      7.57003     14.08241        -0.000240      0.000497     -0.009524
      1.27153      1.26346     15.89965        -0.005527     -0.001102      0.007840
      1.27373      3.78414     15.88237        -0.006263      0.000064      0.000629
      1.27168      6.30465     15.89978        -0.005668      0.001582      0.007826
      1.26348      8.82971     15.90022        -0.000593     -0.000033      0.008698
      3.79579      1.28736     15.92377        -0.009225     -0.009696      0.007588
      3.79919      3.78407     15.87045        -0.006127      0.000379     -0.002334
      3.79588      6.28074     15.92391        -0.008664      0.009004      0.007397
      3.78586      8.82963     15.89978         0.000033      0.000064      0.009299
      6.30481      1.27096     15.90784        -0.000445     -0.003712      0.010314
      6.29848      3.78404     15.90074        -0.000341      0.000506      0.011997
      6.30489      6.29707     15.90785        -0.001017      0.003850      0.010621
      6.30756      8.82962     15.90063         0.000165      0.000105      0.010049
      8.83735      1.25473     15.88869        -0.004700      0.002800      0.006393
      8.83876      3.78419     15.88259        -0.005779      0.000092      0.004457
      8.83743      6.31355     15.88872        -0.004825     -0.002798      0.006258
      8.83045      8.82977     15.90370         0.000014      0.000056      0.009661
      0.00433      0.00192     17.67802         0.003495      0.001395     -0.010844
     10.08959      2.52326     17.67099        -0.004277      0.000167     -0.009780
     10.08965      5.04507     17.67103        -0.004507     -0.000382     -0.009946
      0.00449      7.56641     17.67795         0.002669     -0.001205     -0.010666
      2.52397     10.09019     17.67899         0.000910     -0.000269     -0.012306
      2.48548      2.51542     17.69150        -0.018272     -0.001780      0.001301
      2.48570      5.05265     17.69193        -0.018518      0.001782     -0.000022
      2.52408      7.56914     17.67906         0.001130      0.000340     -0.012674
      5.04582     10.08264     17.68313         0.000253     -0.006197     -0.008972
      5.11060      2.48050     17.75728        -0.011199     -0.006624      0.000759
      5.11067      5.08730     17.75753        -0.012026      0.005907      0.001413
      5.04592      7.57636     17.68325         0.000269      0.006211     -0.008925
      7.56768      0.00140     17.67893         0.000281      0.000171     -0.010247
      7.60905      2.51987     17.65856        -0.000331     -0.000738      0.006931
      7.60900      5.04847     17.65856         0.000433      0.000629      0.007034
      7.56778      7.56697     17.67898         0.000209     -0.000661     -0.010910
      4.48553      3.78299     19.18308         0.018519      0.000403      0.005554
      4.66406      3.78173     20.39085         0.024316      0.001504      0.010719
      3.07721      3.78375     18.75597        -0.008834      0.000463      0.004461
    total drift:                                0.005199      0.000541      0.098592

  FREE ENERGIE OF THE ION-ELECTRON SYSTEM (eV)
  free  energy   TOTEN  =      -258.36912440 eV

  energy  without entropy=     -258.38974060  energy(sigma->0) =     -258.37599647

 NEB: the previous image is higher in energy: F
 NEB: the next image is higher in energy    : F
 NEB: image is at an extrema
 NEB: diff energy (min, max):     0.319948    0.396010

 NEB: Tangent
     -0.00011      0.00001      0.00196
     -0.00015     -0.00000      0.00187
     -0.00011     -0.00001      0.00197
     -0.00006     -0.00000      0.00203
     -0.00052      0.00009      0.00238
     -0.00055      0.00000      0.00244
     -0.00052     -0.00010      0.00238
     -0.00049     -0.00000      0.00233
     -0.00079      0.00005      0.00181
     -0.00087      0.00000      0.00185
     -0.00080     -0.00005      0.00182
     -0.00073     -0.00000      0.00180
     -0.00036     -0.00004      0.00140
     -0.00045     -0.00000      0.00132
     -0.00036      0.00003      0.00141
     -0.00026     -0.00000      0.00154
     -0.00513     -0.00245      0.00128
     -0.00510      0.00154      0.00444
     -0.00515     -0.00162      0.00446
     -0.00521      0.00231      0.00131
     -0.00327     -0.00011      0.00045
     -0.00618     -0.00031     -0.00048
     -0.00617      0.00024     -0.00048
     -0.00345      0.00018      0.00041
      0.00077     -0.00069     -0.00066
     -0.00326      0.00242      0.00368
     -0.00329     -0.00237      0.00371
      0.00073      0.00083     -0.00071
     -0.00202      0.00241      0.00229
     -0.00378     -0.00029      0.00197
     -0.00378      0.00022      0.00188
     -0.00212     -0.00251      0.00230
     -0.01345     -0.00624     -0.00402
     -0.01223     -0.00011      0.01069
     -0.01385      0.00606     -0.00398
     -0.00394     -0.00010      0.00427
     -0.00382     -0.00944     -0.01134
     -0.01839     -0.00005      0.00226
     -0.00445      0.00996     -0.01187
     -0.00409      0.00029      0.00024
     -0.00547      0.00270      0.00732
     -0.00708      0.00007      0.00859
     -0.00563     -0.00261      0.00730
     -0.00234      0.00012      0.00007
     -0.01172      0.00092      0.00593
     -0.01692     -0.00001      0.00758
     -0.01218     -0.00138      0.00618
     -0.00302     -0.00017      0.00305
     -0.00517      0.00008      0.00406
     -0.00655      0.00122      0.00091
     -0.00685     -0.00148      0.00097
     -0.00539     -0.00032      0.00408
     -0.00199     -0.00140      0.00222
     -0.01689     -0.00911     -0.02743
     -0.01734      0.00879     -0.02741
     -0.00217      0.00135      0.00207
     -0.00302      0.00227     -0.00175
     -0.03525      0.01184     -0.01734
     -0.03716     -0.01077     -0.01908
     -0.00328     -0.00136     -0.00227
     -0.00365     -0.00137      0.00392
     -0.01168     -0.00090      0.01659
     -0.01239      0.00038      0.01764
     -0.00390      0.00119      0.00385
     -0.03235      0.00173      0.03457
      0.40591      0.01139     -0.15242
      0.76077      0.00115      0.46985

 NEB: forces: par spring, perp REAL, dneb     3.846782    0.083355    0.000000
 NEB: distance to prev, next image, angle between     1.231293    2.000649   90.392878
 NEB: projections on to tangent (spring, REAL)     3.846782    0.005153

 stress matrix after NEB project (eV)
    -22.91671     -0.00078     -0.17562
     -0.00078    -24.81675      0.01119
     -0.17562      0.01119     -5.36109
  FORCES: max atom, RMS     0.023628    0.010203
  FORCE total and by dimension    0.083514    0.020133
  Stress total and by dimension   34.203064   24.816747
 Quasi-Newton relaxation of ions (Broydens 2nd method)
  g(Force)  = 0.116E-02   g(Stress)= 0.000E+00

 Reset! Starting new Quasi-Newton update for ions

 reached required accuracy - stopping structural energy minimisation

 total charge

[...]

 magnetization (x)

# of ion       s       p       d       tot
    1        0.000   0.000  -0.000  -0.000
    2        0.000   0.000  -0.000  -0.000
    3        0.000   0.000  -0.000  -0.000
    4        0.000   0.000  -0.000  -0.000
    5        0.000   0.000  -0.000  -0.000
    6        0.000   0.000  -0.000  -0.000
    7        0.000   0.000  -0.000  -0.000
    8        0.000   0.000  -0.000  -0.000
    9        0.000   0.000  -0.000  -0.000
   10        0.000   0.000  -0.000  -0.000
   11        0.000   0.000  -0.000  -0.000
   12        0.000   0.000  -0.000  -0.000
   13        0.000   0.000  -0.000  -0.000
   14        0.000   0.000  -0.000  -0.000
   15        0.000   0.000  -0.000  -0.000
   16        0.000   0.000  -0.000   0.000
   17        0.000   0.000  -0.000   0.000
   18        0.000   0.000  -0.000  -0.000
   19        0.000   0.000  -0.000  -0.000
   20        0.000   0.000  -0.000   0.000
   21        0.000   0.000  -0.000  -0.000
   22        0.000   0.000  -0.000   0.000
   23        0.000   0.000  -0.000   0.000
   24        0.000   0.000  -0.000  -0.000
   25        0.000   0.000  -0.000  -0.000
   26        0.000   0.000  -0.000   0.000
   27        0.000   0.000  -0.000   0.000
   28        0.000   0.000  -0.000  -0.000
   29        0.000   0.000  -0.000   0.000
   30        0.000   0.000  -0.000   0.000
   31        0.000   0.000  -0.000   0.000
   32        0.000   0.000  -0.000   0.000
   33        0.000  -0.000   0.000   0.000
   34        0.000  -0.000  -0.000  -0.000
   35        0.000  -0.000   0.000   0.000
   36       -0.000   0.000  -0.000  -0.000
   37       -0.000   0.000  -0.000  -0.000
   38        0.000  -0.000   0.000   0.000
   39       -0.000   0.000  -0.000  -0.000
   40        0.000  -0.000   0.000   0.000
   41       -0.000  -0.000   0.000   0.000
   42       -0.000  -0.000   0.000  -0.000
   43       -0.000  -0.000   0.000   0.000
   44       -0.000   0.000  -0.000  -0.000
   45       -0.000  -0.000   0.000   0.000
   46       -0.000  -0.000   0.000  -0.000
   47       -0.000  -0.000   0.000   0.000
   48       -0.000  -0.000   0.000   0.000
   49       -0.000  -0.000   0.000   0.000
   50       -0.000  -0.000   0.000   0.000
   51       -0.000  -0.000   0.000   0.000
   52       -0.000  -0.000   0.000   0.000
   53       -0.000  -0.000   0.000   0.000
   54        0.000  -0.000  -0.000  -0.000
   55        0.000  -0.000  -0.000  -0.000
   56       -0.000  -0.000   0.000   0.000
   57       -0.000  -0.000   0.000   0.000
   58       -0.000  -0.000  -0.000  -0.000
   59       -0.000  -0.000  -0.000  -0.000
   60       -0.000  -0.000   0.000   0.000
   61       -0.000  -0.000   0.000   0.000
   62       -0.000  -0.000   0.000   0.000
   63       -0.000  -0.000   0.000   0.000
   64       -0.000  -0.000   0.000   0.000
   65       -0.000  -0.000   0.000  -0.000
   66       -0.000  -0.000   0.000  -0.000
   67        0.000  -0.000   0.000   0.000
tot          0.000  -0.000  -0.000  -0.000