 vasp.5.4.4.18Apr17-6-g9f103f2a35 (build May 01 2020 14:57:12) complex

 executed on             LinuxIFC date 2022.02.21  15:51:04

 INCAR:
 POTCAR:    PAW_PBE Pd 04Jan2005
 POTCAR:    PAW_PBE N 08Apr2002
 POTCAR:    PAW_PBE O 08Apr2002
 POTCAR:    PAW_PBE H 15Jun2001

 POTCAR:    PAW_PBE Pd 04Jan2005
   VRHFIN =Pd : s1 d9

   TITEL  = PAW_PBE Pd 04Jan2005
   POMASS =  106.420; ZVAL   =   10.000    mass and valenz
   ENMAX  =  250.925; ENMIN  =  188.194 eV

 POTCAR:    PAW_PBE N 08Apr2002
   VRHFIN =N: s2p3

   TITEL  = PAW_PBE N 08Apr2002
   POMASS =   14.001; ZVAL   =    5.000    mass and valenz
   ENMAX  =  400.000; ENMIN  =  300.000 eV

 POTCAR:    PAW_PBE O 08Apr2002
   VRHFIN =O: s2p4

   TITEL  = PAW_PBE O 08Apr2002
   POMASS =   16.000; ZVAL   =    6.000    mass and valenz
   ENMAX  =  400.000; ENMIN  =  300.000 eV

 POTCAR:    PAW_PBE H 15Jun2001
   VRHFIN =H: ultrasoft test

   TITEL  = PAW_PBE H 15Jun2001
   POMASS =    1.000; ZVAL   =    1.000    mass and valenz
   ENMAX  =  250.000; ENMIN  =  200.000 eV

 Optimization of the real space projectors (new method)

 maximal supplied QI-value         = 14.36
 optimisation between [QCUT,QGAM] = [ 10.20, 20.39] = [ 29.12,116.47] Ry
 Optimized for a Real-space Cutoff    1.55 Angstroem

   l    n(q)    QCUT    max X(q) W(low)/X(q) W(high)/X(q)  e(spline)
   2      9    10.197    59.108    0.12E-03    0.40E-04    0.11E-06
   2      9    10.197    58.101    0.12E-03    0.39E-04    0.12E-06
   0      9    10.197   102.235    0.41E-04    0.86E-05    0.83E-07
   0      9    10.197    58.388    0.37E-04    0.79E-05    0.78E-07
   1      9    10.197    22.191    0.25E-03    0.13E-03    0.84E-07
   1      9    10.197    15.590    0.21E-03    0.11E-03    0.74E-07
 Optimization of the real space projectors (new method)

[...]

   l    n(q)    QCUT    max X(q) W(low)/X(q) W(high)/X(q)  e(spline)
   0      9    10.150    20.381    0.17E-03    0.18E-03    0.41E-06
   0      9    10.150    15.268    0.18E-03    0.20E-03    0.43E-06
   1      9    10.150     5.964    0.16E-03    0.20E-03    0.36E-06
   1      9    10.150     5.382    0.13E-03    0.16E-03    0.33E-06
 Optimization of the real space projectors (new method)

 maximal supplied QI-value         = 34.20
 optimisation between [QCUT,QGAM] = [  9.92, 20.18] = [ 27.55,114.04] Ry
 Optimized for a Real-space Cutoff    1.34 Angstroem

   l    n(q)    QCUT    max X(q) W(low)/X(q) W(high)/X(q)  e(spline)
   0      8     9.919    19.460    0.16E-03    0.20E-03    0.36E-06
   0      8     9.919    12.209    0.16E-03    0.20E-03    0.35E-06
   1      8     9.919     4.655    0.19E-03    0.46E-03    0.40E-06
  PAW_PBE Pd 04Jan2005                  :
  PAW_PBE N 08Apr2002                   :
  PAW_PBE O 08Apr2002                   :
  PAW_PBE H 15Jun2001                   :

 POSCAR: Pd N O H
  positions in direct lattice
  velocities in cartesian coordinates
 exchange correlation table for  LEXCH =        8
   RHO(1)=    0.500       N(1)  =     2000
   RHO(2)=  100.500       N(2)  =     4000

 ion  position               nearest neighbor table
   1  0.125  0.125  0.403-   2 2.75   5 2.75   4 2.75  13 2.75  22 2.75  21 2.75  17 2.75  18 2.76

   2  0.125  0.375  0.403-   1 2.75   3 2.75   6 2.75  14 2.75  22 2.75  23 2.75  19 2.76  18 2.76

[...]

  17  1.000  0.000  0.468-  18 2.74  21 2.74  48 2.74  29 2.74  20 2.75  36 2.75  13 2.75   1 2.75
                            16 2.76   4 2.76  45 2.77  33 2.77
  18  1.000  0.250  0.468-  17 2.74  30 2.74  22 2.74  34 2.75  19 2.75  45 2.75  46 2.75  13 2.76
                             1 2.76  14 2.76  33 2.76   2 2.76
  19  0.000  0.500  0.468-  23 2.74  47 2.74  20 2.74  31 2.74  34 2.75  18 2.75   3 2.75  15 2.75
                             2 2.76  14 2.76  35 2.76  46 2.77
  20  0.000  0.750  0.468-  24 2.74  19 2.74  48 2.75  47 2.75  32 2.75  17 2.75  36 2.75   3 2.75
                             4 2.75  15 2.76  16 2.76  35 2.78
  21  0.250  1.000  0.468-  37 2.74  17 2.74  22 2.74  24 2.75  36 2.75  40 2.75   4 2.75   1 2.75
                            25 2.75   8 2.76   5 2.76  33 2.76
  22  0.250  0.250  0.468-  38 2.73  21 2.74  18 2.74   1 2.75  33 2.75   2 2.75  37 2.75  23 2.75
                             5 2.75   6 2.75  26 2.75  34 2.75
  23  0.250  0.500  0.468-  38 2.72  24 2.74  19 2.74  35 2.75   3 2.75  22 2.75  34 2.75  27 2.75
                             7 2.75  39 2.75   2 2.75   6 2.76
  24  0.250  0.750  0.468-  23 2.74  20 2.74  21 2.75  39 2.75  36 2.75  40 2.75  28 2.75   3 2.75
                             4 2.75   7 2.75   8 2.76  35 2.76
  25  0.500  0.000  0.468-  37 2.74  29 2.74  26 2.74  28 2.75  44 2.75   9 2.75  12 2.75  40 2.75
                            21 2.75   5 2.75   8 2.76  41 2.78
  26  0.501  0.250  0.468-  38 2.73  30 2.74  25 2.74   9 2.75  27 2.75  37 2.75  10 2.75  41 2.75
                            22 2.75   5 2.76  42 2.76   6 2.76
  27  0.500  0.500  0.468-  38 2.72  28 2.74  31 2.74  43 2.75  11 2.75  26 2.75  10 2.75   7 2.75
                            23 2.75   6 2.75  39 2.76  42 2.76
  28  0.500  0.750  0.468-  27 2.74  32 2.74  25 2.75  39 2.75  40 2.75  44 2.75  24 2.75  11 2.75
                            12 2.75   7 2.76   8 2.76  43 2.76
  29  0.750  0.000  0.468-  30 2.74  25 2.74  17 2.74  48 2.75  44 2.75  32 2.75  13 2.75   9 2.76
                            45 2.76  16 2.76  12 2.76  41 2.78
  30  0.750  0.250  0.468-  29 2.74  26 2.74  42 2.74  18 2.74  45 2.75  31 2.75   9 2.75  13 2.75
                            46 2.75  10 2.75  14 2.76  41 2.76
  31  0.750  0.500  0.468-  42 2.74  27 2.74  19 2.74  32 2.74  47 2.75  30 2.75  15 2.75  14 2.76
                            11 2.76  10 2.76  46 2.76  43 2.76
  32  0.750  0.750  0.468-  28 2.74  31 2.74  20 2.75  29 2.75  48 2.75  44 2.75  47 2.75  15 2.75
                            16 2.75  11 2.75  12 2.75  43 2.77
  33  0.126  0.126  0.534-  37 2.73  34 2.73  50 2.74  53 2.75  22 2.75  49 2.76  18 2.76  21 2.76
                            36 2.76  45 2.77  17 2.77  54 2.78
  34  0.125  0.375  0.533-  35 2.73  33 2.73  19 2.75  50 2.75  18 2.75  46 2.75  38 2.75  23 2.75
                            22 2.75  51 2.76  54 2.80  55 2.80
  35  0.127  0.624  0.534-  34 2.73  39 2.73  51 2.74  56 2.74  23 2.75  52 2.75  47 2.76  36 2.76
                            24 2.76  19 2.76  20 2.78  55 2.78
  36  0.125  0.875  0.533-  40 2.74  48 2.74  21 2.75  24 2.75  20 2.75  52 2.75  17 2.75  49 2.75
                            53 2.75  56 2.76  33 2.76  35 2.76
  37  0.375  0.124  0.533-  33 2.73  40 2.74  21 2.74  25 2.74  41 2.74  26 2.75  22 2.75  53 2.76
                            38 2.76  57 2.76  58 2.77  54 2.81
  38  0.375  0.375  0.531-  23 2.72  27 2.72  26 2.73  22 2.73  39 2.75  34 2.75  37 2.76  42 2.76
                            58 2.79  55 2.82  59 2.82  54 2.82
  39  0.375  0.626  0.533-  35 2.73  43 2.73  40 2.74  38 2.75  28 2.75  24 2.75  23 2.75  27 2.76
                            56 2.76  60 2.76  59 2.80  55 2.80
  40  0.375  0.875  0.533-  37 2.74  39 2.74  44 2.74  36 2.74  28 2.75  24 2.75  21 2.75  25 2.75
                            53 2.75  60 2.76  56 2.76  57 2.76
  41  0.625  0.127  0.534-  42 2.72  45 2.74  37 2.74  57 2.75  61 2.75  58 2.75  26 2.75  30 2.76
                            44 2.77  25 2.78  29 2.78  62 2.81
  42  0.627  0.375  0.533-  41 2.72  46 2.72  43 2.74  30 2.74  31 2.74  63 2.75  26 2.76  38 2.76
                            27 2.76  58 2.78  59 2.80  62 2.82
  43  0.624  0.624  0.533-  39 2.73  63 2.74  42 2.74  27 2.75  60 2.75  28 2.76  64 2.76  44 2.76
                            31 2.76  47 2.76  59 2.77  32 2.77
  44  0.625  0.875  0.533-  61 2.74  40 2.74  25 2.75  29 2.75  28 2.75  32 2.75  48 2.75  64 2.75
                            60 2.76  57 2.76  43 2.76  41 2.77
  45  0.874  0.126  0.533-  46 2.72  41 2.74  61 2.74  30 2.75  18 2.75  50 2.75  48 2.76  49 2.76
                            29 2.76  17 2.77  33 2.77  62 2.79
  46  0.874  0.374  0.533-  42 2.72  45 2.72  63 2.75  34 2.75  18 2.75  30 2.75  50 2.75  47 2.76
                            31 2.76  51 2.76  19 2.77  62 2.79
  47  0.875  0.625  0.533-  19 2.74  63 2.74  20 2.75  48 2.75  31 2.75  32 2.75  52 2.75  46 2.76
                            64 2.76  35 2.76  51 2.76  43 2.76
  48  0.875  0.875  0.533-  17 2.74  36 2.74  61 2.74  20 2.75  29 2.75  47 2.75  32 2.75  44 2.75
                            52 2.75  49 2.76  45 2.76  64 2.76
  49  0.000  1.000  0.598-  52 2.74  50 2.75  61 2.75  53 2.75  36 2.75  33 2.76  48 2.76  45 2.76

[...]

  54  0.251  0.251  0.600-  65 2.21  58 2.71  55 2.73  50 2.74  53 2.76  33 2.78  34 2.80  37 2.81
                            38 2.82
  55  0.251  0.499  0.600-  65 2.21  54 2.73  59 2.73  51 2.76  56 2.76  35 2.78  39 2.80  34 2.80
                            38 2.82
  56  0.250  0.750  0.598-  53 2.74  60 2.74  35 2.74  52 2.75  36 2.76  39 2.76  40 2.76  55 2.76

[...]

  58  0.498  0.251  0.599-  65 2.16  54 2.71  59 2.73  41 2.75  57 2.76  37 2.77  42 2.78  38 2.79
                            62 2.80
  59  0.500  0.499  0.600-  65 2.17  55 2.73  58 2.73  63 2.75  60 2.76  43 2.77  42 2.80  39 2.80
                            38 2.82
  60  0.500  0.750  0.598-  57 2.74  56 2.74  64 2.75  43 2.75  44 2.76  40 2.76  39 2.76  59 2.76

[...]

  62  0.752  0.251  0.601-  67 2.36  50 2.74  63 2.76  61 2.77  46 2.79  45 2.79  58 2.80  41 2.81
                            42 2.82
  63  0.750  0.501  0.598-  64 2.73  43 2.74  51 2.74  47 2.74  46 2.75  42 2.75  59 2.75  62 2.76

[...]

  65  0.379  0.374  0.634-  66 1.23  58 2.16  59 2.17  54 2.21  55 2.21
  66  0.384  0.373  0.675-  65 1.23
  67  0.708  0.249  0.678-  68 0.98  69 0.98  62 2.36
  68  0.665  0.171  0.681-  67 0.98
  69  0.644  0.311  0.682-  67 0.98

  LATTYP: Found a simple tetragonal cell.
 ALAT       =    10.9820000000
 C/A-ratio  =     2.7317428519

  Lattice vectors:

 A1 = (  10.9820000000,   0.0000000000,   0.0000000000)
 A2 = (   0.0000000000,  10.9820000000,   0.0000000000)
 A3 = (   0.0000000000,   0.0000000000,  30.0000000000)

Analysis of symmetry for initial positions (statically):
 Subroutine PRICEL returns:
 Original cell was already a primitive cell.

 Routine SETGRP: Setting up the symmetry group for a
 simple tetragonal supercell.

 Subroutine GETGRP returns: Found  1 space group operations
 (whereof  1 operations were pure point group operations)
 out of a pool of 16 trial point group operations.

The static configuration has the point symmetry C_1 .

Analysis of symmetry for dynamics (positions and initial velocities):
 Subroutine PRICEL returns:
 Original cell was already a primitive cell.

[...]

The dynamic configuration has the point symmetry C_1 .

Analysis of constrained symmetry for selective dynamics:
 Subroutine PRICEL returns:
 Original cell was already a primitive cell.

[...]

The constrained configuration has the point symmetry C_1 .

Analysis of structural, dynamic, and magnetic symmetry:
 Subroutine PRICEL returns:
 Original cell was already a primitive cell.

 Routine SETGRP: Setting up the symmetry group for a
 simple tetragonal supercell.

[...]
   -.100E+01 -.208E+01 0.268E+04   0.993E+00 0.207E+01 -.268E+04   0.986E-02 0.826E-02 -.332E+01   0.255E-02 0.607E-02 -.365E-01
   -.972E+00 0.312E+00 0.268E+04   0.953E+00 -.306E+00 -.268E+04   0.198E-01 -.339E-02 -.323E+01   0.418E-02 0.394E-02 -.353E-01
   0.156E+00 0.381E+01 0.961E+03   -.189E+00 -.386E+01 -.961E+03   0.292E-01 0.480E-01 0.160E-02   0.492E-02 0.810E-04 -.105E+00
   0.191E+01 0.411E+01 0.969E+03   -.192E+01 -.413E+01 -.969E+03   0.923E-02 0.300E-01 -.231E-01   0.982E-03 -.660E-02 -.964E-01
   0.346E+01 -.604E+01 0.968E+03   -.346E+01 0.608E+01 -.968E+03   0.366E-02 -.444E-01 -.156E-01   0.514E-02 0.354E-02 -.985E-01
   0.960E-01 -.190E+01 0.961E+03   -.150E+00 0.192E+01 -.961E+03   0.457E-01 -.310E-01 -.182E-01   0.872E-02 0.671E-02 -.107E+00
   0.535E+01 0.776E+01 0.970E+03   -.539E+01 -.774E+01 -.970E+03   0.391E-01 -.798E-02 -.421E-01   -.116E-04 -.437E-02 -.101E+00
   0.928E+01 0.735E+01 0.988E+03   -.929E+01 -.736E+01 -.988E+03   0.780E-02 0.395E-02 -.478E-01   0.246E-02 0.996E-03 -.900E-01
   0.890E+01 -.974E+01 0.984E+03   -.892E+01 0.972E+01 -.984E+03   0.153E-01 0.163E-01 -.102E+00   0.741E-02 0.772E-02 -.879E-01
   0.495E+01 -.539E+01 0.968E+03   -.500E+01 0.540E+01 -.968E+03   0.426E-01 -.109E-01 -.198E-01   0.461E-02 -.679E-03 -.974E-01
   -.193E+01 0.798E+01 0.974E+03   0.195E+01 -.801E+01 -.974E+03   -.141E-01 0.293E-01 -.116E-02   -.374E-02 -.415E-02 -.988E-01
   -.396E+01 0.756E+01 0.989E+03   0.398E+01 -.757E+01 -.989E+03   -.119E-01 0.418E-02 -.900E-01   0.100E-02 0.216E-02 -.918E-01
   -.525E+01 -.997E+01 0.989E+03   0.524E+01 0.100E+02 -.989E+03   0.180E-01 -.252E-01 -.503E-01   -.547E-02 0.237E-02 -.862E-01
   -.186E+01 -.556E+01 0.970E+03   0.192E+01 0.557E+01 -.970E+03   -.477E-01 -.711E-02 -.484E-01   -.102E-01 -.144E-02 -.947E-01
   -.363E+01 0.553E+01 0.964E+03   0.367E+01 -.557E+01 -.964E+03   -.411E-01 0.440E-01 0.295E-02   0.218E-03 -.431E-03 -.103E+00
   -.737E+01 0.427E+01 0.980E+03   0.737E+01 -.430E+01 -.980E+03   -.341E-02 0.321E-01 -.596E-01   -.444E-02 -.459E-02 -.937E-01
   -.726E+01 -.797E+01 0.973E+03   0.728E+01 0.800E+01 -.973E+03   -.144E-01 -.309E-01 -.217E-01   -.731E-02 -.253E-02 -.949E-01
   -.326E+01 -.192E+01 0.965E+03   0.330E+01 0.195E+01 -.965E+03   -.390E-01 -.408E-01 0.221E-01   -.511E-02 0.110E-02 -.102E+00
   0.155E+02 0.239E+02 -.802E+03   -.153E+02 -.238E+02 0.802E+03   -.132E+00 -.141E+00 -.162E+00   0.557E-02 0.208E-02 -.960E-01
   0.216E+02 -.526E+01 -.773E+03   -.217E+02 0.527E+01 0.774E+03   0.133E+00 -.654E-02 0.135E+00   0.103E-01 0.123E-02 -.887E-01
   0.169E+02 -.226E+02 -.815E+03   -.168E+02 0.224E+02 0.815E+03   -.148E+00 0.153E+00 -.163E+00   0.116E-01 -.590E-02 -.960E-01
   0.777E+01 0.376E+01 -.809E+03   -.779E+01 -.375E+01 0.809E+03   0.987E-02 -.516E-02 0.630E-01   0.132E-01 -.220E-02 -.102E+00
   0.109E+02 0.322E+02 -.760E+03   -.109E+02 -.323E+02 0.760E+03   -.194E-01 0.123E+00 0.163E+00   0.238E-02 0.613E-02 -.911E-01
   0.113E+02 -.675E+01 -.683E+03   -.113E+02 0.677E+01 0.682E+03   -.622E-02 -.203E-01 0.132E+01   0.707E-02 0.574E-02 -.843E-01
   0.627E+01 -.301E+02 -.778E+03   -.628E+01 0.303E+02 0.778E+03   0.732E-02 -.121E+00 0.164E+00   -.556E-03 -.798E-02 -.877E-01
   0.555E+01 0.458E+01 -.798E+03   -.555E+01 -.459E+01 0.798E+03   0.301E-02 0.848E-02 0.636E-01   0.539E-03 -.322E-02 -.983E-01
   -.159E+02 0.288E+02 -.789E+03   0.158E+02 -.286E+02 0.789E+03   0.131E+00 -.195E+00 -.150E+00   -.566E-02 0.104E-01 -.953E-01
   -.218E+02 -.859E+01 -.752E+03   0.220E+02 0.856E+01 0.752E+03   -.163E+00 0.299E-01 0.212E+00   -.798E-02 -.194E-02 -.861E-01
   -.162E+02 -.279E+02 -.797E+03   0.161E+02 0.277E+02 0.797E+03   0.153E+00 0.165E+00 -.175E+00   -.139E-01 -.783E-02 -.954E-01
   -.675E+01 0.788E+01 -.795E+03   0.676E+01 -.788E+01 0.795E+03   -.404E-03 -.609E-02 0.612E-01   -.864E-02 0.252E-03 -.931E-01
   -.118E+02 0.191E+02 -.798E+03   0.116E+02 -.190E+02 0.799E+03   0.121E+00 -.133E+00 -.479E-01   -.788E-02 0.837E-02 -.102E+00
   -.125E+02 -.916E+01 -.791E+03   0.124E+02 0.902E+01 0.791E+03   0.136E+00 0.149E+00 -.716E-01   -.478E-02 -.360E-02 -.955E-01
   -.674E+01 -.162E+02 -.798E+03   0.676E+01 0.162E+02 0.798E+03   -.189E-01 0.343E-02 0.666E-01   -.750E-03 -.511E-02 -.968E-01
   -.638E+01 0.632E+01 -.802E+03   0.640E+01 -.631E+01 0.803E+03   -.278E-01 -.110E-01 0.520E-01   0.285E-02 0.476E-02 -.105E+00
   -.742E+01 0.333E+02 -.255E+04   0.741E+01 -.333E+02 0.255E+04   -.784E-03 0.138E-01 0.326E+01   0.521E-02 0.612E-02 -.318E-01
   -.342E+01 0.181E+02 -.252E+04   0.370E+01 -.181E+02 0.252E+04   -.272E+00 0.103E-01 0.334E+01   0.163E-02 0.328E-02 -.322E-01
   0.145E+02 -.376E+02 -.254E+04   -.144E+02 0.377E+02 0.254E+04   -.107E+00 -.285E-01 0.332E+01   0.845E-02 -.430E-02 -.309E-01
   0.362E+01 -.136E+02 -.256E+04   -.363E+01 0.136E+02 0.256E+04   0.391E-02 -.320E-02 0.324E+01   0.611E-02 -.446E-03 -.314E-01
   0.256E+02 0.477E+02 -.255E+04   -.256E+02 -.476E+02 0.254E+04   -.160E-01 -.834E-01 0.327E+01   0.735E-02 0.400E-02 -.364E-01
   0.143E+03 0.128E+03 -.245E+04   -.144E+03 -.128E+03 0.245E+04   0.423E+00 0.378E+00 0.275E+01   0.619E-02 0.753E-02 -.302E-01
   0.139E+03 -.141E+03 -.246E+04   -.139E+03 0.141E+03 0.246E+04   0.378E+00 -.364E+00 0.276E+01   0.112E-01 -.368E-02 -.319E-01
   0.225E+02 -.355E+02 -.256E+04   -.225E+02 0.354E+02 0.255E+04   0.235E-02 0.815E-01 0.330E+01   0.823E-02 -.919E-02 -.370E-01
   0.860E+01 0.686E+02 -.253E+04   -.851E+01 -.685E+02 0.253E+04   -.947E-01 -.136E+00 0.311E+01   -.161E-02 0.542E-02 -.370E-01
   -.740E+02 0.134E+03 -.236E+04   0.739E+02 -.135E+03 0.235E+04   0.955E-01 0.373E+00 0.266E+01   -.365E-02 0.112E-01 -.342E-01
   -.105E+03 -.168E+03 -.242E+04   0.105E+03 0.168E+03 0.242E+04   -.328E+00 -.308E+00 0.263E+01   -.210E-02 -.478E-02 -.379E-01
   -.767E+01 -.363E+02 -.255E+04   0.771E+01 0.362E+02 0.254E+04   -.224E-01 0.788E-01 0.325E+01   -.765E-02 -.977E-02 -.363E-01
   -.263E+02 0.616E+02 -.251E+04   0.263E+02 -.618E+02 0.251E+04   0.751E-01 0.157E+00 0.307E+01   -.390E-02 0.718E-02 -.329E-01
   -.751E+02 0.175E+02 -.243E+04   0.753E+02 -.176E+02 0.243E+04   -.188E+00 0.132E-01 0.336E+01   -.124E-01 0.432E-02 -.258E-01
   -.487E+02 -.660E+02 -.250E+04   0.485E+02 0.662E+02 0.250E+04   0.130E+00 -.207E+00 0.323E+01   -.128E-01 -.105E-01 -.346E-01
   -.183E+02 -.138E+02 -.255E+04   0.183E+02 0.138E+02 0.255E+04   0.545E-02 0.552E-02 0.319E+01   -.107E-01 -.697E-02 -.308E-01
   0.364E+02 -.139E+02 -.135E+04   -.382E+02 0.144E+02 0.133E+04   0.182E+01 -.487E+00 0.251E+02   0.198E-02 0.753E-03 -.621E-02
   0.274E+02 -.127E+02 -.210E+04   -.260E+02 0.122E+02 0.215E+04   -.146E+01 0.530E+00 -.541E+02   -.405E-03 0.139E-02 0.106E-01
   -.955E+02 0.113E+02 -.187E+04   0.141E+03 -.443E+01 0.187E+04   -.452E+02 -.690E+01 0.122E+01   -.121E-01 -.673E-03 0.622E-02
   0.330E+02 0.834E+02 -.316E+03   -.367E+02 -.907E+02 0.317E+03   0.372E+01 0.732E+01 -.728E+00   -.765E-03 0.413E-03 0.167E-02
   0.461E+02 -.597E+02 -.319E+03   -.517E+02 0.656E+02 0.320E+03   0.567E+01 -.589E+01 -.893E+00   -.736E-03 -.716E-04 0.142E-02
   0.352E+02 0.543E+01 0.352E+02   0.334E-12 -.114E-12 -.147E-10   -.352E+02 -.544E+01 -.311E+02   -.983E-02 0.229E-02 -.410E+01

 POSITION                                       TOTAL-FORCE (eV/Angst)
      1.37275      1.37275     12.08797        -0.018067     -0.006070      0.003397
      1.37275      4.11824     12.08797        -0.023981     -0.000625      0.008827
      1.37275      6.86373     12.08797        -0.001653      0.013411     -0.021231
      1.37275      9.60922     12.08797        -0.008722     -0.006113     -0.010631
      4.11824      1.37275     12.08797         0.004740     -0.013797      0.011526
      4.11824      4.11824     12.08797         0.001492     -0.002297      0.002837
      4.11824      6.86373     12.08797        -0.002411      0.023269     -0.010238
      4.11824      9.60922     12.08797        -0.003309     -0.007035      0.007393
      6.86373      1.37275     12.08797         0.010695     -0.007958     -0.010307
      6.86373      4.11824     12.08797         0.016420      0.000550      0.001143
      6.86373      6.86373     12.08797         0.012709      0.011739     -0.002730
      6.86373      9.60922     12.08797         0.017277      0.000151      0.004728
      9.60922      1.37275     12.08797         0.003097     -0.010405     -0.000112
      9.60922      4.11824     12.08797         0.003831     -0.002470      0.016813
      9.60922      6.86373     12.08797         0.003155      0.006782      0.014534
      9.60922      9.60922     12.08797         0.004708      0.006992     -0.027335
     10.98095      0.00247     14.04370         0.000053      0.001467     -0.001915
     10.97912      2.74311     14.04652         0.001634     -0.003466     -0.000992
      0.00047      5.49172     14.04389         0.000402      0.003634      0.000098
      0.00242      8.23591     14.04235        -0.001337     -0.003545     -0.001825
      2.74148     10.98143     14.04082         0.000247      0.002092      0.000485
      2.74230      2.74355     14.03639        -0.001192     -0.002421     -0.001375
      2.74177      5.49427     14.03918         0.000593      0.001940      0.000729
      2.74240      8.23506     14.04062         0.000829     -0.002332     -0.002420
      5.49657      0.00137     14.04007        -0.002865      0.000315     -0.002049
      5.49655      2.74336     14.04223         0.002476      0.000559     -0.002146
      5.49435      5.49378     14.03684        -0.000453     -0.001316     -0.001313
      5.49464      8.23573     14.04160         0.000186      0.000029     -0.003657
      8.23790      0.00389     14.04472         0.001015      0.003526     -0.001397
      8.23666      2.74211     14.04036        -0.002619     -0.001893      0.004184
      8.23836      5.49117     14.04409        -0.001221      0.003279     -0.001122
      8.23767      8.23691     14.04004         0.000153     -0.002901     -0.001562
      1.38729      1.38573     16.00499         0.002979     -0.003205      0.000190
      1.36868      4.11950     15.98737         0.000442      0.002487      0.000603
      1.39044      6.84894     16.01094         0.001086     -0.002556      0.000474
      1.37500      9.60860     15.98901         0.000199      0.002158      0.006318
      4.11723      1.36281     15.97855        -0.004169     -0.007319      0.000866
      4.11657      4.12265     15.94391        -0.001033      0.003683     -0.000824
      4.11932      6.86988     15.98690        -0.001627     -0.001533      0.000610
      4.11996      9.60783     15.98513        -0.001846      0.003526      0.004299
      6.85856      1.39398     16.01714         0.004852      0.000651      0.000295
      6.88011      4.11540     15.98953        -0.000535      0.000098      0.004741
      6.84983      6.85100     16.00363         0.001372      0.002357      0.002080
      6.86392      9.61020     15.98483        -0.001666     -0.000870      0.007677
      9.60145      1.38434     16.00424        -0.001181      0.000391     -0.001547
      9.60286      4.10800     16.00163        -0.001285     -0.001798      0.001365
      9.61444      6.86400     15.98563         0.000774      0.001220      0.000546
      9.61350      9.61077     15.98359        -0.001757     -0.001458      0.003465
      0.00183     10.98152     17.94278         0.000080     -0.004389      0.002304
      0.01988      2.74597     17.94455         0.005404      0.000655      0.004609
      0.00212      5.49224     17.95062         0.000928     -0.000784      0.001075
      0.00015      8.23797     17.94075         0.001774     -0.001599      0.000093
      2.75062     10.97928     17.94544        -0.002794     -0.001348     -0.001902
      2.75760      2.75353     18.00203         0.002163      0.000325     -0.000098
      2.76163      5.47911     18.00636        -0.002494      0.000915     -0.005407
      2.74817      8.23930     17.94954         0.001349      0.002599     -0.002109
      5.49511     10.98060     17.95030        -0.002455     -0.005181      0.001170
      5.46742      2.75272     17.96164         0.002303      0.002049      0.000143
      5.48998      5.48424     17.99799        -0.002467     -0.003284      0.001431
      5.49263      8.24101     17.94660         0.001579      0.002973     -0.001029
      8.23676     10.96973     17.93123        -0.004973     -0.002335      0.001171
      8.26410      2.75256     18.03715         0.002268      0.002965     -0.004425
      8.24242      5.50699     17.93535        -0.003211      0.001314      0.004781
      8.23897      8.23869     17.94026        -0.000425      0.004676      0.000787
      4.16697      4.11036     19.03215         0.001278      0.000321      0.004524
      4.21910      4.09390     20.26119        -0.001292      0.000490     -0.005868
      7.77320      2.73192     20.34430        -0.002413      0.013072     -0.008305
      7.30537      1.87744     20.43306        -0.011365     -0.014593     -0.001014
      7.07654      3.41151     20.45082         0.000273     -0.001763      0.004575
    total drift:                                0.003802     -0.000905      0.031077

  FREE ENERGIE OF THE ION-ELECTRON SYSTEM (eV)
  free  energy   TOTEN  =      -365.64336938 eV

  energy  without entropy=     -365.53023718  energy(sigma->0) =     -365.60565865

 d Force = 0.3325511E-06[-0.180E-06, 0.845E-06]  d Energy = 0.6019429E-06-0.269E-06
 d Force =-0.2678022E+00[-0.268E+00,-0.268E+00]  d Ewald  =-0.2678022E+00 0.180E-08

 reached required accuracy - stopping structural energy minimisation

 total charge

[...]

 magnetization (x)

# of ion       s       p       d       tot
    1       -0.001  -0.004   0.223   0.218
    2       -0.001  -0.004   0.224   0.219
    3       -0.000  -0.004   0.228   0.224
    4       -0.001  -0.003   0.228   0.224
    5       -0.001  -0.004   0.223   0.218
    6       -0.001  -0.004   0.229   0.225
    7       -0.001  -0.003   0.228   0.224
    8       -0.000  -0.004   0.214   0.210
    9       -0.000  -0.004   0.226   0.222
   10       -0.001  -0.003   0.227   0.222
   11       -0.001  -0.004   0.222   0.217
   12       -0.001  -0.003   0.222   0.217
   13       -0.001  -0.003   0.227   0.223
   14       -0.000  -0.004   0.214   0.210
   15       -0.002  -0.003   0.221   0.216
   16        0.003  -0.004   0.235   0.234
   17       -0.002  -0.006   0.316   0.309
   18       -0.002  -0.006   0.324   0.316
   19       -0.002  -0.006   0.318   0.310
   20       -0.002  -0.006   0.316   0.308
   21       -0.002  -0.006   0.321   0.312
   22       -0.002  -0.006   0.327   0.319
   23       -0.002  -0.006   0.327   0.319
   24       -0.002  -0.006   0.320   0.312
   25       -0.002  -0.006   0.324   0.316
   26       -0.002  -0.006   0.325   0.317
   27       -0.002  -0.006   0.328   0.321
   28       -0.002  -0.006   0.320   0.312
   29       -0.002  -0.006   0.315   0.307
   30       -0.002  -0.006   0.324   0.316
   31       -0.002  -0.006   0.319   0.311
   32       -0.002  -0.006   0.315   0.307
   33       -0.002  -0.006   0.285   0.276
   34       -0.002  -0.006   0.313   0.306
   35       -0.002  -0.006   0.289   0.281
   36       -0.002  -0.006   0.319   0.311
   37       -0.002  -0.006   0.309   0.302
   38       -0.001  -0.005   0.272   0.266
   39       -0.001  -0.006   0.316   0.309
   40       -0.002  -0.006   0.316   0.308
   41       -0.002  -0.006   0.281   0.273
   42       -0.001  -0.006   0.311   0.304
   43       -0.002  -0.006   0.279   0.271
   44       -0.002  -0.006   0.311   0.303
   45       -0.002  -0.006   0.309   0.301
   46       -0.002  -0.006   0.304   0.296
   47       -0.002  -0.006   0.309   0.301
   48       -0.001  -0.006   0.324   0.316
   49       -0.001  -0.003   0.221   0.217
   50       -0.001  -0.004   0.215   0.210
   51       -0.000  -0.004   0.210   0.206
   52       -0.001  -0.003   0.218   0.213
   53       -0.000  -0.003   0.207   0.203
   54       -0.002  -0.004   0.109   0.103
   55       -0.002  -0.004   0.111   0.105
   56       -0.000  -0.003   0.209   0.205
   57       -0.000  -0.004   0.206   0.202
   58       -0.003  -0.004   0.099   0.092
   59       -0.002  -0.004   0.101   0.095
   60       -0.000  -0.003   0.206   0.202
   61       -0.001  -0.004   0.219   0.214
   62       -0.002  -0.004   0.186   0.179
   63       -0.001  -0.004   0.210   0.205
   64       -0.001  -0.003   0.213   0.210
   65        0.001  -0.009   0.000  -0.008
   66       -0.000  -0.017   0.000  -0.018
   67        0.000   0.004   0.000   0.004
   68       -0.000   0.000   0.000   0.000
   69       -0.000   0.000   0.000   0.000
tot         -0.084  -0.335  16.516  16.097