 vasp.5.4.4.18Apr17-6-g9f103f2a35 (build Jun 11 2020 13:42:08) complex

 executed on             LinuxIFC date 2021.11.08  20:32:18

 INCAR:
 POTCAR:    PAW_PBE Cu 22Jun2005
 POTCAR:    PAW_PBE H 15Jun2001
 POTCAR:    PAW_PBE N 08Apr2002
 POTCAR:    PAW_PBE O 08Apr2002

 POTCAR:    PAW_PBE Cu 22Jun2005
   VRHFIN =Cu: d10 p1

   TITEL  = PAW_PBE Cu 22Jun2005
   POMASS =   63.546; ZVAL   =   11.000    mass and valenz
   ENMAX  =  295.446; ENMIN  =  221.585 eV

 POTCAR:    PAW_PBE H 15Jun2001
   VRHFIN =H: ultrasoft test

   TITEL  = PAW_PBE H 15Jun2001
   POMASS =    1.000; ZVAL   =    1.000    mass and valenz
   ENMAX  =  250.000; ENMIN  =  200.000 eV

 POTCAR:    PAW_PBE N 08Apr2002
   VRHFIN =N: s2p3

   TITEL  = PAW_PBE N 08Apr2002
   POMASS =   14.001; ZVAL   =    5.000    mass and valenz
   ENMAX  =  400.000; ENMIN  =  300.000 eV

 POTCAR:    PAW_PBE O 08Apr2002
   VRHFIN =O: s2p4

   TITEL  = PAW_PBE O 08Apr2002
   POMASS =   16.000; ZVAL   =    6.000    mass and valenz
   ENMAX  =  400.000; ENMIN  =  300.000 eV

 Optimization of the real space projectors (new method)

 maximal supplied QI-value         = 16.25
 optimisation between [QCUT,QGAM] = [ 10.24, 20.48] = [ 29.35,117.42] Ry
 Optimized for a Real-space Cutoff    1.55 Angstroem

   l    n(q)    QCUT    max X(q) W(low)/X(q) W(high)/X(q)  e(spline)
   2      9    10.239     4.610    0.85E-04    0.29E-03    0.14E-06
   2      9    10.239     8.522    0.15E-03    0.50E-03    0.27E-06
   0     10    10.239    51.609    0.45E-04    0.99E-04    0.10E-06
   0     10    10.239    27.747    0.40E-04    0.93E-04    0.97E-07
   1      9    10.239    20.408    0.15E-03    0.78E-05    0.15E-06
   1      9    10.239    13.425    0.13E-03    0.71E-05    0.14E-06
 Optimization of the real space projectors (new method)

[...]

   l    n(q)    QCUT    max X(q) W(low)/X(q) W(high)/X(q)  e(spline)
   0     10    10.053    79.467    0.61E-04    0.98E-04    0.61E-06
   0     10    10.053    66.151    0.60E-04    0.98E-04    0.61E-06
   1     10    10.053     8.350    0.17E-03    0.71E-03    0.45E-05
   1     10    10.053     5.531    0.18E-03    0.77E-03    0.49E-05
 Optimization of the real space projectors (new method)

 maximal supplied QI-value         = 24.76
 optimisation between [QCUT,QGAM] = [ 10.15, 20.30] = [ 28.85,115.39] Ry
 Optimized for a Real-space Cutoff    1.51 Angstroem

   l    n(q)    QCUT    max X(q) W(low)/X(q) W(high)/X(q)  e(spline)
   0      9    10.150    20.381    0.17E-03    0.18E-03    0.41E-06
   0      9    10.150    15.268    0.18E-03    0.20E-03    0.43E-06
   1      9    10.150     5.964    0.16E-03    0.20E-03    0.36E-06
   1      9    10.150     5.382    0.13E-03    0.16E-03    0.33E-06
  PAW_PBE Cu 22Jun2005                  :
  PAW_PBE H 15Jun2001                   :
  PAW_PBE N 08Apr2002                   :
  PAW_PBE O 08Apr2002                   :

 POSCAR: Cu H N O
  positions in direct lattice
  velocities in cartesian coordinates
 exchange correlation table for  LEXCH =        8
   RHO(1)=    0.500       N(1)  =     2000
   RHO(2)=  100.500       N(2)  =     4000

 VTST: version 3.1, (03/28/14)

 CHAIN: initializing optimizer

 OPT: Using VASP QUASI-newton optimizer
 CHAIN: Read ICHAIN            0
 CHAIN: Running the NEB
 NEB:          SPRING     -5.000000
 NEB:          LCLIMB      T
 NEB:     LTANGENTOLD      F
 NEB:           LDNEB      F
 NEB:        LDNEBORG      F
 NEB:        LNEBCELL      F
 NEB:          EFIRST   -273.701737
 NEB:           ELAST   -273.985119

 POSCAR: Cu H N O
  positions in direct lattice

 POSCAR: Cu H N O
  positions in direct lattice

 ion  position               nearest neighbor table
   1  0.125  0.125  0.410-  22 2.50  21 2.52  18 2.52   4 2.52   5 2.52   2 2.52  13 2.52  17 2.53

   2  0.125  0.375  0.410-  23 2.51  22 2.51   6 2.52   1 2.52   3 2.52  14 2.52  18 2.52  19 2.53

[...]

  17  1.000  1.000  0.470-  21 2.52  18 2.52  16 2.52  13 2.52   4 2.52  29 2.52   1 2.53  20 2.53
                            36 2.54  45 2.55  48 2.56  33 2.57
  18  1.000  0.250  0.470-  22 2.51  13 2.52  17 2.52   1 2.52  14 2.52  30 2.52   2 2.52  19 2.52
                            46 2.54  45 2.55  34 2.55  33 2.56
  19  0.999  0.500  0.470-  23 2.51  20 2.52  14 2.52  15 2.52  31 2.52  18 2.52   2 2.53   3 2.53
                            46 2.54  35 2.55  34 2.56  47 2.56
  20  0.999  0.749  0.470-  19 2.52  15 2.52  32 2.52  24 2.52  16 2.53   3 2.53  17 2.53   4 2.53
                            36 2.54  48 2.55  35 2.56  47 2.57
  21  0.250  0.000  0.470-  22 2.51  17 2.52   4 2.52   1 2.52  25 2.52  24 2.52   8 2.52   5 2.52
                            40 2.54  36 2.55  37 2.55  33 2.56
  22  0.248  0.249  0.469-  38 2.48   1 2.50   2 2.51  18 2.51  21 2.51   5 2.52   6 2.52  26 2.54
                            23 2.54  37 2.55  33 2.55  34 2.56
  23  0.248  0.501  0.469-  38 2.48   3 2.50   2 2.51  19 2.51  24 2.51   7 2.52   6 2.52  22 2.54
                            27 2.54  39 2.54  35 2.56  34 2.56
  24  0.249  0.750  0.470-  23 2.51   3 2.52   4 2.52  20 2.52  21 2.52   7 2.53  28 2.53   8 2.53
                            40 2.54  36 2.54  39 2.55  35 2.57
  25  0.500  1.000  0.470-  26 2.51   8 2.52   5 2.52  12 2.52  21 2.52   9 2.52  29 2.52  28 2.52
                            40 2.54  41 2.55  44 2.55  37 2.56
  26  0.500  0.249  0.469-  38 2.50   5 2.50   9 2.50  25 2.51   6 2.51  10 2.52  30 2.52  42 2.53
                            22 2.54  27 2.55  41 2.55  37 2.55
  27  0.500  0.501  0.469-  38 2.49   7 2.50  11 2.50  28 2.51   6 2.51  10 2.52  31 2.52  42 2.53
                            23 2.54  26 2.55  43 2.55  39 2.56
  28  0.500  0.750  0.470-  27 2.51   7 2.52  32 2.52   8 2.52  11 2.52  25 2.52  24 2.53  12 2.53
                            44 2.54  40 2.54  43 2.56  39 2.56
  29  0.750  1.000  0.470-  12 2.52  16 2.52   9 2.52  32 2.52  30 2.52  25 2.52  17 2.52  13 2.53
                            45 2.54  44 2.55  48 2.55  41 2.56
  30  0.750  0.250  0.470-   9 2.52  26 2.52  13 2.52  10 2.52  18 2.52  29 2.52  31 2.52  14 2.53
                            46 2.53  42 2.54  45 2.54  41 2.55
  31  0.750  0.500  0.470-  10 2.52  32 2.52  27 2.52  11 2.52  19 2.52  14 2.52  30 2.52  15 2.53
                            47 2.54  46 2.54  42 2.54  43 2.56
  32  0.750  0.750  0.470-  11 2.52  31 2.52  28 2.52  20 2.52  15 2.52  29 2.52  12 2.52  16 2.53
                            44 2.54  48 2.55  47 2.55  43 2.57
  33  0.125  0.126  0.531-  50 2.51  34 2.51  37 2.51  53 2.51  49 2.52  45 2.54  36 2.54  54 2.54
                            22 2.55  18 2.56  21 2.56  17 2.57
  34  0.125  0.375  0.531-  35 2.51  33 2.51  38 2.51  50 2.52  51 2.53  46 2.53  55 2.55  18 2.55
                            19 2.56  22 2.56  23 2.56  54 2.56
  35  0.124  0.623  0.531-  34 2.51  39 2.51  52 2.51  56 2.51  51 2.51  55 2.53  36 2.54  47 2.54
                            19 2.55  23 2.56  20 2.56  24 2.57
  36  0.124  0.875  0.530-  56 2.52  49 2.52  53 2.52  52 2.52  40 2.52  48 2.52  33 2.54  35 2.54
                            17 2.54  20 2.54  24 2.54  21 2.55
  37  0.374  0.127  0.530-  33 2.51  58 2.51  38 2.51  53 2.52  41 2.52  57 2.53  40 2.54  22 2.55
                            21 2.55  26 2.55  25 2.56  54 2.56
  38  0.373  0.375  0.527-  22 2.48  23 2.48  27 2.49  26 2.50  34 2.51  39 2.51  37 2.51  42 2.51
                            58 2.60  59 2.60  54 2.66  55 2.67
  39  0.373  0.623  0.530-  38 2.51  59 2.51  35 2.51  56 2.52  43 2.53  60 2.53  40 2.54  23 2.54
                            24 2.55  27 2.56  28 2.56  55 2.57
  40  0.374  0.875  0.530-  60 2.52  53 2.52  56 2.52  44 2.52  57 2.52  36 2.52  37 2.54  21 2.54
                            39 2.54  24 2.54  25 2.54  28 2.54
  41  0.624  0.125  0.531-  57 2.51  42 2.52  58 2.52  61 2.52  62 2.52  37 2.52  45 2.53  44 2.53
                            25 2.55  26 2.55  30 2.55  29 2.56
  42  0.622  0.375  0.529-  43 2.50  38 2.51  41 2.52  26 2.53  58 2.53  27 2.53  63 2.54  30 2.54
                            31 2.54  46 2.54  62 2.55  59 2.56
  43  0.623  0.623  0.531-  42 2.50  64 2.51  59 2.51  60 2.51  47 2.51  39 2.53  44 2.54  27 2.55
                            63 2.55  31 2.56  28 2.56  32 2.57
  44  0.624  0.874  0.530-  60 2.51  48 2.52  57 2.52  61 2.52  40 2.52  64 2.53  41 2.53  43 2.54
                            28 2.54  32 2.54  25 2.55  29 2.55
  45  0.874  0.125  0.530-  50 2.52  61 2.52  46 2.52  49 2.52  41 2.53  48 2.53  62 2.53  33 2.54
                            30 2.54  29 2.54  17 2.55  18 2.55
  46  0.874  0.374  0.530-  47 2.51  45 2.52  51 2.52  50 2.53  62 2.53  30 2.53  34 2.53  31 2.54
                            18 2.54  42 2.54  19 2.54  63 2.56
  47  0.872  0.623  0.531-  64 2.50  51 2.50  46 2.51  43 2.51  52 2.53  48 2.53  31 2.54  35 2.54
                            32 2.55  19 2.56  20 2.57  63 2.58
  48  0.874  0.874  0.531-  52 2.51  61 2.52  49 2.52  44 2.52  36 2.52  64 2.53  45 2.53  47 2.53
                            32 2.55  20 2.55  29 2.55  17 2.56
  49  0.999  1.000  0.590-  33 2.52  48 2.52  36 2.52  45 2.52  50 2.52  61 2.52  52 2.53  53 2.53

[...]

  54  0.248  0.249  0.592-  68 2.05  50 2.52  53 2.52  58 2.53  55 2.53  33 2.54  34 2.56  37 2.56
                            38 2.66
  55  0.246  0.500  0.592-  68 2.05  51 2.52  56 2.52  59 2.53  35 2.53  54 2.53  34 2.55  39 2.57
                            38 2.67
  56  0.249  0.750  0.590-  35 2.51  36 2.52  39 2.52  53 2.52  60 2.52  40 2.52  55 2.52  52 2.52

[...]

  58  0.498  0.250  0.590-  68 2.10  37 2.51  41 2.52  57 2.52  62 2.52  54 2.53  42 2.53  59 2.53
                            38 2.60
  59  0.496  0.501  0.590-  68 2.07  39 2.51  43 2.51  63 2.51  60 2.52  55 2.53  58 2.53  42 2.56
                            38 2.60
  60  0.499  0.750  0.590-  43 2.51  44 2.51  40 2.52  59 2.52  56 2.52  64 2.52  57 2.52  39 2.53

[...]

  65  0.680  0.356  0.636-  70 1.42
  66  0.645  0.238  0.682-  70 0.98
  67  0.534  0.352  0.678-  70 1.04
  68  0.372  0.376  0.626-  69 1.30  55 2.05  54 2.05  59 2.07  58 2.10
  69  0.385  0.377  0.669-  68 1.30
  70  0.636  0.334  0.680-  66 0.98  67 1.04  65 1.42

  LATTYP: Found a simple tetragonal cell.
 ALAT       =    10.0912000000
 C/A-ratio  =     2.9728872681

  Lattice vectors:

 A1 = (  10.0912000000,   0.0000000000,   0.0000000000)
 A2 = (   0.0000000000,  10.0912000000,   0.0000000000)
 A3 = (   0.0000000000,   0.0000000000,  30.0000000000)

Analysis of symmetry for initial positions (statically):
 Subroutine PRICEL returns:
 Original cell was already a primitive cell.

 Routine SETGRP: Setting up the symmetry group for a
 simple tetragonal supercell.

 Subroutine GETGRP returns: Found  1 space group operations
 (whereof  1 operations were pure point group operations)
 out of a pool of 16 trial point group operations.

The static configuration has the point symmetry C_1 .

Analysis of symmetry for dynamics (positions and initial velocities):
 Subroutine PRICEL returns:
 Original cell was already a primitive cell.

[...]

The dynamic configuration has the point symmetry C_1 .

Analysis of constrained symmetry for selective dynamics:
[...]
   -.105E+02 -.275E+02 -.121E+04   0.103E+02 0.275E+02 0.121E+04   0.230E+00 -.205E-01 0.230E+00   0.871E-02 0.578E-03 0.415E-01
   -.710E+01 0.447E+01 -.121E+04   0.721E+01 -.450E+01 0.121E+04   -.117E+00 0.302E-01 0.167E+00   0.290E-02 0.383E-02 0.371E-01
   0.520E+01 0.367E+02 -.377E+04   -.525E+01 -.368E+02 0.377E+04   0.530E-01 0.133E+00 0.349E+01   0.349E-02 0.507E-02 0.294E-01
   0.141E+02 0.347E+02 -.374E+04   -.141E+02 -.351E+02 0.373E+04   -.580E-01 0.358E+00 0.369E+01   0.993E-02 0.637E-02 0.323E-01
   0.217E+02 -.428E+02 -.374E+04   -.216E+02 0.432E+02 0.374E+04   -.114E+00 -.326E+00 0.373E+01   0.138E-01 -.896E-02 0.350E-01
   0.989E+01 -.289E+02 -.378E+04   -.996E+01 0.291E+02 0.377E+04   0.737E-01 -.131E+00 0.354E+01   0.324E-02 -.762E-02 0.293E-01
   0.327E+02 0.626E+02 -.375E+04   -.329E+02 -.626E+02 0.375E+04   0.189E+00 -.254E-01 0.341E+01   0.500E-02 0.167E-01 0.312E-01
   0.164E+03 0.150E+03 -.366E+04   -.166E+03 -.151E+03 0.365E+04   0.151E+01 0.160E+01 0.289E+01   0.358E-01 0.408E-01 0.551E-01
   0.162E+03 -.154E+03 -.366E+04   -.164E+03 0.156E+03 0.366E+04   0.145E+01 -.151E+01 0.283E+01   0.430E-01 -.394E-01 0.577E-01
   0.303E+02 -.569E+02 -.375E+04   -.305E+02 0.569E+02 0.375E+04   0.180E+00 0.406E-01 0.345E+01   0.383E-02 -.172E-01 0.313E-01
   -.369E+01 0.824E+02 -.373E+04   0.385E+01 -.823E+02 0.373E+04   -.160E+00 -.630E-01 0.327E+01   -.753E-02 0.173E-01 0.300E-01
   -.693E+02 0.171E+03 -.350E+04   0.698E+02 -.173E+03 0.350E+04   -.455E+00 0.191E+01 0.380E+01   -.421E-01 0.381E-01 0.585E-01
   -.869E+02 -.191E+03 -.354E+04   0.878E+02 0.192E+03 0.354E+04   -.833E+00 -.174E+01 0.357E+01   -.377E-01 -.383E-01 0.669E-01
   -.102E+02 -.668E+02 -.374E+04   0.103E+02 0.668E+02 0.374E+04   -.145E+00 0.426E-01 0.345E+01   -.871E-02 -.168E-01 0.306E-01
   -.347E+02 0.608E+02 -.375E+04   0.348E+02 -.607E+02 0.375E+04   -.108E+00 -.154E+00 0.339E+01   -.636E-02 0.606E-02 0.287E-01
   -.108E+03 0.934E+02 -.363E+04   0.107E+03 -.921E+02 0.363E+04   0.404E+00 -.120E+01 0.693E+00   -.255E-01 0.132E-01 0.386E-01
   -.100E+03 -.117E+03 -.371E+04   0.100E+03 0.116E+03 0.371E+04   0.349E+00 0.978E+00 0.177E+01   -.146E-01 -.681E-02 0.415E-01
   -.309E+02 -.390E+02 -.377E+04   0.311E+02 0.389E+02 0.376E+04   -.111E+00 0.968E-01 0.362E+01   -.722E-02 -.140E-01 0.322E-01
   -.213E+02 -.982E+01 -.399E+03   0.214E+02 0.101E+02 0.399E+03   -.261E-01 -.299E+00 0.302E-01   -.374E-02 0.520E-03 0.130E-02
   -.214E+02 0.940E+02 -.411E+03   0.224E+02 -.102E+03 0.412E+03   -.968E+00 0.805E+01 -.524E+00   -.316E-02 0.461E-03 -.105E-02
   0.348E+02 -.891E+01 -.418E+03   -.404E+02 0.101E+02 0.418E+03   0.570E+01 -.119E+01 0.103E+00   -.664E-02 0.187E-02 -.321E-02
   0.630E+02 -.491E+01 -.191E+04   -.660E+02 0.472E+01 0.189E+04   0.310E+01 0.191E+00 0.201E+02   -.155E-03 0.108E-02 0.265E-01
   0.852E+02 -.218E+02 -.268E+04   -.880E+02 0.236E+02 0.272E+04   0.282E+01 -.178E+01 -.452E+02   -.877E-02 0.567E-02 -.227E-01
   -.131E+03 -.197E+02 -.247E+04   0.154E+03 0.507E+02 0.248E+04   -.237E+02 -.310E+02 -.854E+01   -.409E-01 0.288E-01 -.189E-01
   0.110E+02 0.260E+02 0.375E+02   -.512E-12 0.213E-13 -.223E-10   -.109E+02 -.260E+02 -.395E+02   -.324E-01 0.495E-01 0.205E+01

 POSITION                                       TOTAL-FORCE (eV/Angst)
      1.26164      1.26137     12.31169        -0.032772     -0.025620     -0.029024
      1.26160      3.78430     12.31142        -0.033562     -0.000761     -0.006592
      1.26157      6.30731     12.31157        -0.036145      0.022000     -0.020747
      1.26163      8.82997     12.31183        -0.027104     -0.006591      0.043519
      3.78443      1.26151     12.31236        -0.004906     -0.008383     -0.012895
      3.78443      3.78431     12.31218         0.001820      0.001236      0.009769
      3.78438      6.30723     12.31217        -0.009700      0.004783     -0.007368
      3.78436      8.83002     12.31232        -0.006009     -0.004695      0.016371
      6.30678      1.26153     12.31236         0.011513     -0.014738     -0.033560
      6.30675      3.78431     12.31231        -0.008245     -0.004218     -0.013669
      6.30677      6.30717     12.31222         0.006035      0.004127     -0.032648
      6.30679      8.82998     12.31227         0.000280     -0.005102      0.043155
      8.82956      1.26140     12.31172        -0.005324     -0.006351      0.030954
      8.82949      3.78429     12.31156        -0.007099     -0.005480      0.015316
      8.82953      6.30724     12.31167        -0.007980     -0.004244      0.029131
      8.82960      8.82994     12.31180         0.003938     -0.007024      0.034834
     10.08986     10.09020     14.09691        -0.000031     -0.000606     -0.001600
     10.08903      2.52009     14.09435        -0.000347     -0.000977     -0.002792
     10.08553      5.04511     14.09509        -0.001334     -0.000299     -0.002004
     10.08507      7.56268     14.10034        -0.001579     -0.002083      0.000035
      2.51871      0.00004     14.09567        -0.000937     -0.000726     -0.002240
      2.50663      2.51453     14.08008        -0.003913     -0.002432     -0.003607
      2.50433      5.05331     14.08022        -0.004708      0.002621     -0.003769
      2.51670      7.56785     14.09534        -0.000753      0.000416     -0.002302
      5.04191     10.08967     14.09411        -0.000472     -0.001262     -0.002727
      5.04526      2.51088     14.07638         0.000611     -0.003923     -0.006634
      5.04442      5.05668     14.07709         0.000379      0.003108     -0.006664
      5.04195      7.56516     14.09674        -0.000470     -0.000484     -0.001616
      7.56587     10.08661     14.09477        -0.000235     -0.002040     -0.002687
      7.56591      2.51930     14.09432         0.000948     -0.000881     -0.002234
      7.56355      5.04423     14.09447         0.000197     -0.000331     -0.002147
      7.56355      7.56332     14.09646        -0.000398     -0.001419     -0.001713
      1.26445      1.27468     15.93336         0.000400     -0.002519      0.000078
      1.26121      3.78200     15.92107         0.003962      0.001078      0.002239
      1.25308      6.28913     15.93430         0.007302      0.003191      0.000572
      1.25526      8.82815     15.91048         0.002674      0.000860      0.002351
      3.77214      1.27767     15.91447         0.004969     -0.005031      0.001185
      3.76589      3.78458     15.80103         0.006753      0.000147     -0.001901
      3.76310      6.29033     15.91515         0.010703      0.005719      0.002897
      3.77873      8.83010     15.90511         0.002336     -0.000099      0.001764
      6.29484      1.26370     15.91619         0.004953      0.000887      0.002480
      6.27690      3.78062     15.88415         0.007361      0.003964     -0.001239
      6.28887      6.28504     15.93199         0.009156      0.004149      0.002274
      6.30198      8.82201     15.91144         0.003250      0.002653      0.002321
      8.82030      1.25884     15.91256         0.002819      0.002462      0.002969
      8.81790      3.77746     15.89963         0.006755      0.003692      0.002202
      8.80306      6.28571     15.92592         0.009847      0.006740      0.003581
      8.82195      8.81996     15.92015         0.002928      0.003900      0.001568
     10.08536     10.08947     17.69028        -0.002217     -0.001014     -0.004360
     10.07615      2.52069     17.69259        -0.006857     -0.001034     -0.003501
     10.05639      5.03814     17.69401        -0.002779     -0.002289     -0.000168
     10.08262      7.56301     17.69060        -0.002821     -0.002119     -0.004595
      2.52089     10.08801     17.68823        -0.000301     -0.001093     -0.005668
      2.50428      2.51607     17.76722        -0.004250     -0.000345     -0.008899
      2.48187      5.05002     17.76726         0.002758      0.000663     -0.005542
      2.51625      7.57046     17.68605        -0.002014      0.001060     -0.005869
      5.04252      0.00196     17.68606        -0.001093      0.000189     -0.007008
      5.02870      2.52173     17.69131        -0.008259     -0.001409     -0.005912
      5.00953      5.05336     17.70529        -0.002015      0.001708      0.001610
      5.03651      7.57129     17.68505        -0.002526      0.001260     -0.006574
      7.56036     10.08858     17.69115        -0.002834     -0.000661     -0.005022
      7.55329      2.52673     17.69948        -0.008415      0.003846      0.000713
      7.52106      4.97692     17.74627         0.005123      0.003090      0.006061
      7.55689      7.54046     17.69360        -0.003233     -0.009617     -0.000786
      6.86320      3.58942     19.06917         0.029110      0.013736     -0.012388
      6.50999      2.40000     20.45200         0.027110      0.003547      0.006150
      5.38876      3.55262     20.34965         0.031896      0.006696      0.002048
      3.75286      3.79755     18.77316         0.010365     -0.000981      0.004384
      3.89003      3.80633     20.06105         0.011677     -0.008214     -0.004836
      6.41494      3.37436     20.39711         0.013707      0.033565      0.012975
    total drift:                               -0.000581      0.000794      0.004116

  FREE ENERGIE OF THE ION-ELECTRON SYSTEM (eV)
  free  energy   TOTEN  =      -272.96175841 eV

  energy  without entropy=     -272.99904051  energy(sigma->0) =     -272.97418578

 d Force = 0.1304719E-03[ 0.972E-04, 0.164E-03]  d Energy = 0.1482046E-03-0.177E-04
 d Force =-0.1240840E+01[-0.124E+01,-0.124E+01]  d Ewald  =-0.1240840E+01 0.309E-06

 NEB: the previous image is higher in energy: F
 NEB: the next image is higher in energy    : F
 NEB: image is at an extrema
 NEB: diff energy (min, max):     0.427555    1.023361

 NEB: Tangent
     -0.00035     -0.00015      0.00197
     -0.00029     -0.00017      0.00222
     -0.00025     -0.00037      0.00220
     -0.00032     -0.00035      0.00197
     -0.00035     -0.00030      0.00123
     -0.00035     -0.00017      0.00141
     -0.00027     -0.00029      0.00161
     -0.00025     -0.00042      0.00146
      0.00013     -0.00033      0.00123
      0.00015     -0.00017      0.00124
      0.00013     -0.00022      0.00153
      0.00012     -0.00038      0.00153
      0.00015     -0.00019      0.00192
      0.00023     -0.00016      0.00204
      0.00019     -0.00028      0.00209
      0.00010     -0.00030      0.00201
      0.00341     -0.00392      0.00102
      0.00003      0.00071      0.00481
     -0.00024     -0.00291      0.00544
      0.00275     -0.00203      0.00481
      0.00056      0.00028      0.00305
     -0.00217     -0.00260      0.00151
     -0.00156     -0.00048      0.00217
      0.00122     -0.00404      0.00347
     -0.00275     -0.00518     -0.00002
      0.00044     -0.00058      0.00414
      0.00105     -0.00138      0.00444
     -0.00105     -0.00144      0.00337
      0.00017     -0.00403      0.00181
      0.00185     -0.00189      0.00027
      0.00213     -0.00037     -0.00024
      0.00014     -0.00360      0.00450
      0.00137      0.00132      0.01049
      0.00086     -0.00270      0.00927
      0.00467     -0.00922      0.01339
      0.00054     -0.00395      0.00194
     -0.00590     -0.00457     -0.00030
     -0.00605     -0.00139     -0.00331
     -0.00208     -0.00551      0.00692
      0.00138     -0.00436      0.00415
     -0.00356     -0.01324     -0.00979
      0.00824     -0.00087      0.00269
     -0.00145     -0.00445      0.00618
      0.00330     -0.00677      0.00558
      0.00849     -0.01229     -0.00776
     -0.00256     -0.00265      0.01399
      0.00372     -0.00375      0.00396
     -0.00052     -0.00569      0.01087
      0.00251     -0.00147      0.00575
     -0.01092     -0.00069      0.00917
     -0.01050     -0.00503      0.01156
      0.00389     -0.00321      0.00636
     -0.00060     -0.00654      0.00363
      0.00297     -0.00512      0.02058
      0.00629     -0.01100      0.02855
      0.00054     -0.00443      0.00542
      0.00114     -0.00080      0.00311
      0.00885     -0.00083     -0.02815
      0.00901     -0.00423      0.00429
      0.00066     -0.00245      0.00535
     -0.00152     -0.00582      0.00962
     -0.00425     -0.01600     -0.03078
     -0.01154     -0.03231      0.01017
      0.00000     -0.01482      0.01037
     -0.38907     -0.05288      0.59022
      0.27093      0.33481     -0.24273
     -0.20156      0.23140     -0.13663
      0.05227     -0.02548     -0.04384
      0.08484     -0.03920      0.01671
      0.09744      0.32769     -0.02404

 NEB: forces: par spring, perp REAL, dneb     1.565424    0.082780    0.000000
 NEB: distance to prev, next image, angle between     0.999848    1.312932  100.874679
 NEB: projections on to tangent (spring, REAL)     1.565424   -0.004398

 stress matrix after NEB project (eV)
    -26.63946     -0.11281      1.04112
     -0.11281    -26.86803      0.41175
      1.04112      0.41175     -5.82507
  FORCES: max atom, RMS     0.041273    0.009908
  FORCE total and by dimension    0.082897    0.036448
  Stress total and by dimension   38.314694   26.868031
 Quasi-Newton relaxation of ions (Broydens 2nd method)
  g(Force)  = 0.804E-03   g(Stress)= 0.000E+00

 retain information from N=  2 steps
 eigenvalues of (default step * inverse Hessian matrix)
  average eigenvalue of G=   2.6501
 eigenvalue spectrum of G is  0.3240  4.9763

 reached required accuracy - stopping structural energy minimisation

 total charge

[...]

 magnetization (x)

# of ion       s       p       d       tot
    1        0.000   0.000  -0.000  -0.000
    2        0.000   0.000  -0.000  -0.000
    3        0.000   0.000  -0.000  -0.000
    4        0.000   0.000  -0.000  -0.000
    5        0.000   0.000  -0.000  -0.000
    6        0.000   0.000  -0.000  -0.000
    7        0.000   0.000  -0.000  -0.000
    8        0.000   0.000  -0.000  -0.000
    9        0.000   0.000  -0.000  -0.000
   10        0.000   0.000  -0.000  -0.000
   11        0.000   0.000  -0.000  -0.000
   12        0.000   0.000  -0.000  -0.000
   13        0.000   0.000  -0.000  -0.000
   14        0.000   0.000  -0.000  -0.000
   15        0.000   0.000  -0.000  -0.000
   16        0.000   0.000  -0.000   0.000
   17        0.000   0.000  -0.000   0.000
   18        0.000   0.000  -0.000   0.000
   19        0.000   0.000  -0.000   0.000
   20        0.000   0.000  -0.000   0.000
   21        0.000   0.000  -0.000   0.000
   22        0.000   0.000  -0.000   0.000
   23        0.000   0.000  -0.000  -0.000
   24        0.000   0.000  -0.000   0.000
   25        0.000   0.000  -0.000   0.000
   26        0.000   0.000  -0.000  -0.000
   27        0.000   0.000  -0.000   0.000
   28        0.000   0.000  -0.000   0.000
   29        0.000   0.000  -0.000   0.000
   30        0.000   0.000  -0.000   0.000
   31        0.000   0.000  -0.000  -0.000
   32        0.000   0.000  -0.000   0.000
   33       -0.000  -0.000   0.000   0.000
   34       -0.000  -0.000  -0.000  -0.000
   35       -0.000  -0.000   0.000   0.000
   36       -0.000   0.000  -0.000  -0.000
   37       -0.000  -0.000   0.000  -0.000
   38        0.000  -0.000   0.000   0.000
   39       -0.000  -0.000  -0.000  -0.000
   40       -0.000  -0.000   0.000   0.000
   41       -0.000  -0.000   0.000   0.000
   42       -0.000  -0.000   0.000  -0.000
   43       -0.000  -0.000   0.000   0.000
   44       -0.000   0.000  -0.000  -0.000
   45       -0.000  -0.000   0.000  -0.000
   46       -0.000  -0.000   0.000   0.000
   47       -0.000  -0.000   0.000  -0.000
   48       -0.000  -0.000   0.000   0.000
   49       -0.000  -0.000   0.000   0.000
   50       -0.000  -0.000   0.000   0.000
   51       -0.000  -0.000   0.000   0.000
   52       -0.000  -0.000   0.000   0.000
   53       -0.000  -0.000   0.000   0.000
   54       -0.000  -0.000   0.000  -0.000
   55       -0.000  -0.000   0.000  -0.000
   56       -0.000  -0.000   0.000   0.000
   57       -0.000  -0.000   0.000   0.000
   58       -0.000  -0.000   0.000  -0.000
   59       -0.000  -0.000   0.000  -0.000
   60       -0.000  -0.000   0.000   0.000
   61       -0.000  -0.000   0.000   0.000
   62        0.000  -0.000   0.000   0.000
   63       -0.000  -0.000   0.000  -0.000
   64       -0.000  -0.000   0.000   0.000
   65        0.000   0.000   0.000   0.000
   66        0.000  -0.000   0.000   0.000
   67        0.000  -0.000   0.000   0.000
   68       -0.000  -0.000   0.000  -0.000
   69        0.000  -0.000   0.000  -0.000
   70        0.000   0.000   0.000   0.000
tot          0.000  -0.000  -0.000  -0.000