 vasp.5.4.4.18Apr17-6-g9f103f2a35 (build May 01 2020 14:57:12) complex

 executed on             LinuxIFC date 2021.09.03  10:41:20

 INCAR:
 POTCAR:    PAW_PBE Pd 04Jan2005
 POTCAR:    PAW_PBE N 08Apr2002
 POTCAR:    PAW_PBE O 08Apr2002

 POTCAR:    PAW_PBE Pd 04Jan2005
   VRHFIN =Pd : s1 d9

   TITEL  = PAW_PBE Pd 04Jan2005
   POMASS =  106.420; ZVAL   =   10.000    mass and valenz
   ENMAX  =  250.925; ENMIN  =  188.194 eV

 POTCAR:    PAW_PBE N 08Apr2002
   VRHFIN =N: s2p3

   TITEL  = PAW_PBE N 08Apr2002
   POMASS =   14.001; ZVAL   =    5.000    mass and valenz
   ENMAX  =  400.000; ENMIN  =  300.000 eV

 POTCAR:    PAW_PBE O 08Apr2002
   VRHFIN =O: s2p4

   TITEL  = PAW_PBE O 08Apr2002
   POMASS =   16.000; ZVAL   =    6.000    mass and valenz
   ENMAX  =  400.000; ENMIN  =  300.000 eV

 Optimization of the real space projectors (new method)

 maximal supplied QI-value         = 14.36
 optimisation between [QCUT,QGAM] = [ 10.20, 20.39] = [ 29.12,116.47] Ry
 Optimized for a Real-space Cutoff    1.55 Angstroem

   l    n(q)    QCUT    max X(q) W(low)/X(q) W(high)/X(q)  e(spline)
   2      9    10.197    59.108    0.12E-03    0.40E-04    0.11E-06
   2      9    10.197    58.101    0.12E-03    0.39E-04    0.12E-06
   0      9    10.197   102.235    0.41E-04    0.86E-05    0.83E-07
   0      9    10.197    58.388    0.37E-04    0.79E-05    0.78E-07
   1      9    10.197    22.191    0.25E-03    0.13E-03    0.84E-07
   1      9    10.197    15.590    0.21E-03    0.11E-03    0.74E-07
 Optimization of the real space projectors (new method)

[...]

   l    n(q)    QCUT    max X(q) W(low)/X(q) W(high)/X(q)  e(spline)
   0     10    10.053    79.467    0.61E-04    0.98E-04    0.61E-06
   0     10    10.053    66.151    0.60E-04    0.98E-04    0.61E-06
   1     10    10.053     8.350    0.17E-03    0.71E-03    0.45E-05
   1     10    10.053     5.531    0.18E-03    0.77E-03    0.49E-05
 Optimization of the real space projectors (new method)

 maximal supplied QI-value         = 24.76
 optimisation between [QCUT,QGAM] = [ 10.15, 20.30] = [ 28.85,115.39] Ry
 Optimized for a Real-space Cutoff    1.51 Angstroem

   l    n(q)    QCUT    max X(q) W(low)/X(q) W(high)/X(q)  e(spline)
   0      9    10.150    20.381    0.17E-03    0.18E-03    0.41E-06
   0      9    10.150    15.268    0.18E-03    0.20E-03    0.43E-06
   1      9    10.150     5.964    0.16E-03    0.20E-03    0.36E-06
   1      9    10.150     5.382    0.13E-03    0.16E-03    0.33E-06
  PAW_PBE Pd 04Jan2005                  :
  PAW_PBE N 08Apr2002                   :
  PAW_PBE O 08Apr2002                   :

 POSCAR: Pd N O
  positions in direct lattice
  velocities in cartesian coordinates
 exchange correlation table for  LEXCH =        8
   RHO(1)=    0.500       N(1)  =     2000
   RHO(2)=  100.500       N(2)  =     4000

 ion  position               nearest neighbor table
   1  0.125  0.125  0.403-   2 2.75   5 2.75   4 2.75  13 2.75  18 2.75  22 2.75  21 2.76  17 2.76

   2  0.125  0.375  0.403-   1 2.75   3 2.75   6 2.75  14 2.75  18 2.75  22 2.75  19 2.76  23 2.76

[...]

  17  1.000  1.000  0.468-  33 2.74  29 2.74  21 2.74  48 2.75  20 2.75  18 2.75  45 2.75  36 2.75
                            16 2.75   4 2.75  13 2.76   1 2.76
  18  0.000  0.250  0.468-  34 2.74  30 2.75  19 2.75  22 2.75  17 2.75  45 2.75  33 2.75   1 2.75
                            13 2.75   2 2.75  14 2.75  46 2.76
  19  1.000  0.500  0.468-  20 2.74  31 2.74  35 2.75  18 2.75  34 2.75  46 2.75  14 2.75  15 2.76
                            23 2.76   2 2.76   3 2.76  47 2.76
  20  1.000  0.749  0.468-  19 2.74  32 2.74  48 2.74  35 2.74  36 2.75  17 2.75  24 2.75  15 2.75
                             3 2.76  16 2.76   4 2.76  47 2.78
  21  0.250  0.999  0.468-  37 2.74  17 2.74  33 2.74  24 2.75  25 2.75  40 2.75  36 2.75   4 2.75
                            22 2.75   8 2.75   1 2.76   5 2.76
  22  0.250  0.250  0.468-  34 2.74  37 2.74  23 2.75  26 2.75  18 2.75   5 2.75   6 2.75  21 2.75
                             1 2.75   2 2.75  33 2.75  38 2.77
  23  0.251  0.500  0.468-  24 2.74  34 2.74  35 2.74  27 2.75  22 2.75  38 2.75   6 2.75   7 2.75
                            19 2.76  39 2.76   2 2.76   3 2.76
  24  0.250  0.749  0.468-  23 2.74  40 2.74  35 2.74  28 2.74  21 2.75  36 2.75  20 2.75   7 2.75
                             3 2.75   8 2.76   4 2.76  39 2.78
  25  0.500  1.000  0.468-  37 2.74  44 2.74  29 2.75  21 2.75  41 2.75  12 2.75   8 2.75  40 2.75
                            28 2.75  26 2.75   9 2.75   5 2.75
  26  0.500  0.250  0.468-  27 2.74  30 2.74  41 2.74  22 2.75  37 2.75  38 2.75  10 2.75  25 2.75
                             6 2.75   9 2.76   5 2.76  42 2.77
  27  0.501  0.500  0.468-  31 2.74  26 2.74  28 2.74  23 2.75  39 2.75  38 2.75  10 2.75  11 2.75
                            43 2.75  42 2.76   6 2.76   7 2.76
  28  0.500  0.749  0.468-  27 2.74  24 2.74  40 2.74  44 2.75  32 2.75   7 2.75  11 2.75  25 2.75
                             8 2.76  12 2.76  43 2.76  39 2.76
  29  0.750  1.000  0.468-  41 2.74  17 2.74  44 2.74  25 2.75  45 2.75  48 2.75  30 2.75  16 2.75
                            32 2.75  13 2.75  12 2.75   9 2.75
  30  0.750  0.250  0.468-  31 2.74  41 2.74  26 2.74  18 2.75  45 2.75  29 2.75  46 2.75  14 2.75
                            10 2.75  13 2.76   9 2.76  42 2.77
  31  0.750  0.500  0.468-  27 2.74  30 2.74  32 2.74  19 2.74  47 2.75  42 2.75  46 2.75  43 2.75
                            10 2.76  11 2.76  14 2.76  15 2.76
  32  0.750  0.749  0.468-  31 2.74  20 2.74  44 2.75  48 2.75  28 2.75  15 2.75  11 2.75  29 2.75
                            16 2.76  12 2.76  43 2.76  47 2.76
  33  0.125  0.124  0.533-  37 2.74  17 2.74  34 2.74  21 2.74  45 2.74  36 2.75  50 2.75  18 2.75
                            22 2.75  54 2.75  53 2.76  49 2.76
  34  0.125  0.374  0.533-  22 2.74  23 2.74  18 2.74  33 2.74  19 2.75  46 2.75  51 2.75  35 2.75
                            55 2.75  38 2.75  50 2.75  54 2.76
  35  0.125  0.625  0.533-  36 2.74  24 2.74  20 2.74  23 2.74  19 2.75  51 2.75  34 2.75  55 2.75
                            56 2.75  52 2.76  39 2.76  47 2.77
  36  0.125  0.874  0.533-  35 2.74  48 2.74  40 2.74  33 2.75  20 2.75  24 2.75  21 2.75  17 2.75
                            52 2.75  56 2.75  53 2.75  49 2.75
  37  0.375  0.124  0.532-  58 2.73  21 2.74  25 2.74  33 2.74  22 2.74  26 2.75  40 2.75  41 2.75
                            38 2.76  53 2.76  57 2.76  54 2.76
  38  0.376  0.375  0.533-  39 2.72  58 2.73  42 2.74  27 2.75  23 2.75  26 2.75  55 2.75  34 2.75
                            37 2.76  54 2.76  22 2.77  59 2.80
  39  0.377  0.623  0.534-  38 2.72  43 2.72  27 2.75  55 2.75  60 2.75  40 2.76  56 2.76  59 2.76
                            23 2.76  28 2.76  35 2.76  24 2.78
  40  0.375  0.874  0.533-  24 2.74  60 2.74  28 2.74  36 2.74  44 2.75  21 2.75  37 2.75  25 2.75
                            53 2.75  39 2.76  56 2.76  57 2.76
  41  0.625  0.125  0.533-  58 2.74  45 2.74  29 2.74  30 2.74  26 2.74  44 2.75  25 2.75  62 2.75
                            37 2.75  61 2.76  42 2.76  57 2.76
  42  0.626  0.376  0.534-  43 2.73  38 2.74  46 2.74  58 2.75  31 2.75  41 2.76  27 2.76  62 2.77
                            30 2.77  26 2.77  63 2.82  59 2.82
  43  0.625  0.625  0.534-  39 2.72  47 2.73  42 2.73  44 2.75  27 2.75  60 2.75  31 2.75  28 2.76
                            32 2.76  64 2.77  63 2.77  59 2.81
  44  0.625  0.875  0.533-  25 2.74  29 2.74  28 2.75  32 2.75  40 2.75  41 2.75  48 2.75  64 2.75
                            60 2.75  43 2.75  57 2.76  61 2.76
  45  0.875  0.125  0.533-  46 2.74  41 2.74  62 2.74  33 2.74  29 2.75  17 2.75  18 2.75  48 2.75
                            30 2.75  61 2.75  49 2.76  50 2.76
  46  0.875  0.375  0.533-  47 2.73  45 2.74  42 2.74  34 2.75  30 2.75  19 2.75  31 2.75  50 2.75
                            51 2.75  18 2.76  62 2.77  63 2.80
  47  0.873  0.623  0.534-  63 2.71  43 2.73  46 2.73  31 2.75  51 2.75  52 2.76  48 2.76  32 2.76
                            64 2.76  19 2.76  35 2.77  20 2.78
  48  0.875  0.875  0.533-  20 2.74  64 2.74  36 2.74  17 2.75  32 2.75  44 2.75  29 2.75  45 2.75
                            49 2.75  52 2.76  61 2.76  47 2.76
  49  1.000  1.000  0.598-  52 2.74  50 2.74  61 2.75  53 2.75  36 2.75  48 2.75  33 2.76  45 2.76

[...]

  59  0.498  0.502  0.601-  66 2.15  55 2.73  60 2.75  39 2.76  58 2.79  38 2.80  43 2.81  63 2.81
                            42 2.82
  60  0.500  0.752  0.598-  57 2.72  64 2.74  40 2.74  44 2.75  39 2.75  56 2.75  59 2.75  43 2.75

[...]

  63  0.754  0.506  0.600-  68 2.15  47 2.71  64 2.72  51 2.73  43 2.77  46 2.80  59 2.81  42 2.82
                            62 2.84
  64  0.750  0.753  0.598-  61 2.71  63 2.72  60 2.74  48 2.74  44 2.75  52 2.75  47 2.76  43 2.77

  65  0.630  0.423  0.687-  67 1.23  66 1.29  68 1.31
  66  0.532  0.468  0.670-  65 1.29  59 2.15
  67  0.631  0.382  0.725-  65 1.23
  68  0.731  0.419  0.663-  65 1.31  63 2.15

  LATTYP: Found a simple tetragonal cell.
 ALAT       =    10.9820000000
 C/A-ratio  =     2.7317428519

  Lattice vectors:

 A1 = (  10.9820000000,   0.0000000000,   0.0000000000)
 A2 = (   0.0000000000,  10.9820000000,   0.0000000000)
 A3 = (   0.0000000000,   0.0000000000,  30.0000000000)

Analysis of symmetry for initial positions (statically):
 Subroutine PRICEL returns:
 Original cell was already a primitive cell.

 Routine SETGRP: Setting up the symmetry group for a
 simple tetragonal supercell.

 Subroutine GETGRP returns: Found  1 space group operations
 (whereof  1 operations were pure point group operations)
 out of a pool of 16 trial point group operations.

The static configuration has the point symmetry C_1 .

Analysis of symmetry for dynamics (positions and initial velocities):
 Subroutine PRICEL returns:
 Original cell was already a primitive cell.

[...]

The dynamic configuration has the point symmetry C_1 .

Analysis of constrained symmetry for selective dynamics:
 Subroutine PRICEL returns:
 Original cell was already a primitive cell.

[...]

The constrained configuration has the point symmetry C_1 .

Analysis of structural, dynamic, and magnetic symmetry:
 Subroutine PRICEL returns:
 Original cell was already a primitive cell.

 Routine SETGRP: Setting up the symmetry group for a
 simple tetragonal supercell.

 Subroutine GETGRP returns: Found  1 space group operations
 (whereof  1 operations were pure point group operations)
 out of a pool of 16 trial point group operations.

The magnetic configuration has the point symmetry C_1 .

 Subroutine INISYM returns: Found  1 space group operations
 (whereof  1 operations are pure point group operations),
 and found     1 'primitive' translations

 KPOINTS: K-Point Grid

Automatic generation of k-mesh.
Space group operators:
 irot       det(A)        alpha          n_x          n_y          n_z        tau_x        tau_y        tau_z
    1     1.000000     0.000001     1.000000     0.000000     0.000000     0.000000     0.000000     0.000000

 Subroutine IBZKPT returns following result:

 Found      8 irreducible k-points:

 Following reciprocal coordinates:
[...]
   -.221E+01 0.654E+00 0.269E+04   0.223E+01 -.625E+00 -.269E+04   0.225E-02 -.237E-01 -.327E+01   -.177E-01 -.145E-01 -.217E-01
   -.387E+01 0.344E+01 0.977E+03   0.385E+01 -.345E+01 -.977E+03   0.143E-01 0.166E-01 -.832E-01   0.231E-02 -.889E-02 -.416E-01
   -.468E+01 0.460E+01 0.988E+03   0.471E+01 -.463E+01 -.988E+03   -.314E-01 0.602E-02 0.936E-03   0.951E-03 0.194E-01 -.378E-01
   -.628E+01 -.437E+01 0.984E+03   0.628E+01 0.437E+01 -.984E+03   -.480E-02 -.858E-02 -.149E-01   0.744E-03 0.101E-01 -.322E-01
   -.404E+01 -.382E+01 0.974E+03   0.406E+01 0.381E+01 -.974E+03   -.213E-01 0.215E-01 -.673E-01   0.724E-03 -.178E-01 -.370E-01
   0.362E+01 0.335E+01 0.978E+03   -.365E+01 -.334E+01 -.978E+03   -.137E-01 0.377E-02 -.951E-01   0.380E-01 -.878E-02 -.323E-01
   0.384E+01 0.420E+01 0.987E+03   -.390E+01 -.423E+01 -.987E+03   0.218E-01 0.156E-01 0.840E-02   0.380E-01 0.194E-01 -.282E-01
   0.613E+01 -.426E+01 0.982E+03   -.616E+01 0.424E+01 -.982E+03   -.562E-02 0.495E-02 -.493E-01   0.365E-01 0.850E-02 -.228E-01
   0.364E+01 -.354E+01 0.976E+03   -.371E+01 0.355E+01 -.976E+03   0.369E-01 0.366E-02 -.467E-01   0.374E-01 -.156E-01 -.285E-01
   0.420E+01 0.370E+01 0.986E+03   -.419E+01 -.369E+01 -.986E+03   -.135E-01 0.455E-02 -.314E-01   -.177E-02 -.940E-02 -.258E-01
   0.502E+01 0.668E+01 0.992E+03   -.504E+01 -.671E+01 -.992E+03   0.235E-01 0.767E-02 -.393E-02   -.182E-02 0.187E-01 -.226E-01
   0.691E+01 -.359E+01 0.996E+03   -.689E+01 0.359E+01 -.996E+03   -.143E-01 -.433E-02 -.900E-01   -.363E-03 0.912E-02 -.147E-01
   0.514E+01 -.692E+01 0.986E+03   -.516E+01 0.694E+01 -.986E+03   0.247E-01 -.575E-02 -.186E-01   0.297E-03 -.180E-01 -.201E-01
   -.393E+01 0.412E+01 0.986E+03   0.396E+01 -.411E+01 -.986E+03   0.146E-01 0.129E-02 -.353E-01   -.391E-01 -.103E-01 -.344E-01
   -.414E+01 0.662E+01 0.995E+03   0.420E+01 -.665E+01 -.995E+03   -.259E-01 0.494E-02 -.141E-01   -.388E-01 0.200E-01 -.302E-01
   -.668E+01 -.399E+01 0.995E+03   0.669E+01 0.397E+01 -.995E+03   0.206E-01 0.330E-02 -.107E+00   -.376E-01 0.899E-02 -.248E-01
   -.479E+01 -.691E+01 0.986E+03   0.486E+01 0.694E+01 -.986E+03   -.282E-01 -.113E-01 -.660E-02   -.375E-01 -.186E-01 -.293E-01
   -.115E+01 0.134E+02 -.787E+03   0.112E+01 -.134E+02 0.788E+03   0.849E-03 0.135E-01 0.673E-01   0.299E-01 0.104E-01 -.269E-01
   -.199E+01 0.530E+01 -.767E+03   0.194E+01 -.531E+01 0.767E+03   0.121E-01 -.124E-01 0.862E-02   0.297E-01 0.251E-01 -.264E-01
   -.437E+00 -.151E+02 -.780E+03   0.420E+00 0.152E+02 0.780E+03   -.104E-01 -.211E-01 0.572E-01   0.282E-01 -.835E-02 -.278E-01
   -.545E+00 -.403E+01 -.798E+03   0.516E+00 0.403E+01 0.798E+03   0.399E-03 0.246E-01 0.550E-01   0.290E-01 -.193E-01 -.286E-01
   0.178E+02 0.192E+02 -.767E+03   -.179E+02 -.192E+02 0.767E+03   0.248E-02 -.154E-01 0.675E-01   0.268E-01 0.849E-02 -.305E-01
   0.284E+02 0.100E+02 -.755E+03   -.283E+02 -.990E+01 0.755E+03   -.110E+00 -.134E+00 -.410E-02   0.241E-01 0.248E-01 -.317E-01
   0.280E+02 -.252E+02 -.778E+03   -.278E+02 0.250E+02 0.778E+03   -.293E+00 0.265E+00 -.203E+00   0.271E-01 -.935E-02 -.329E-01
   0.142E+02 -.612E+01 -.784E+03   -.143E+02 0.612E+01 0.784E+03   0.107E-01 0.206E-01 0.462E-01   0.276E-01 -.186E-01 -.329E-01
   0.210E+01 0.267E+02 -.751E+03   -.203E+01 -.267E+02 0.751E+03   -.399E-01 -.750E-01 -.119E-01   -.290E-01 0.565E-02 -.315E-01
   0.145E+01 0.103E+02 -.733E+03   -.147E+01 -.104E+02 0.733E+03   0.486E-01 0.560E-01 0.310E+00   -.297E-01 0.218E-01 -.365E-01
   0.299E+01 -.294E+02 -.749E+03   -.291E+01 0.294E+02 0.749E+03   -.511E-01 0.111E+00 0.819E-01   -.290E-01 -.852E-02 -.344E-01
   0.874E+00 -.957E+01 -.768E+03   -.857E+00 0.955E+01 0.768E+03   0.881E-02 0.406E-01 0.211E-01   -.261E-01 -.201E-01 -.317E-01
   -.190E+02 0.210E+02 -.773E+03   0.190E+02 -.209E+02 0.773E+03   0.559E-01 -.839E-01 -.136E-01   -.283E-01 0.712E-02 -.267E-01
   -.271E+02 0.928E+01 -.752E+03   0.271E+02 -.930E+01 0.752E+03   -.189E-01 -.196E-02 0.143E+00   -.268E-01 0.229E-01 -.295E-01
   -.310E+02 -.280E+02 -.773E+03   0.306E+02 0.277E+02 0.774E+03   0.386E+00 0.305E+00 -.312E+00   -.275E-01 -.828E-02 -.300E-01
   -.146E+02 -.543E+01 -.784E+03   0.147E+02 0.544E+01 0.784E+03   -.139E-01 0.654E-02 0.517E-01   -.296E-01 -.209E-01 -.268E-01
   -.205E+02 0.145E+02 -.255E+04   0.205E+02 -.145E+02 0.254E+04   -.147E-01 0.118E-01 0.332E+01   -.172E-02 -.565E-02 0.966E-02
   -.479E+02 0.401E+02 -.251E+04   0.481E+02 -.401E+02 0.251E+04   -.136E+00 0.336E-01 0.341E+01   -.205E-02 0.188E-01 0.492E-02
   -.668E+02 -.208E+02 -.250E+04   0.670E+02 0.209E+02 0.249E+04   -.186E+00 -.408E-01 0.340E+01   0.102E-02 0.841E-02 -.640E-02
   -.277E+02 -.329E+02 -.254E+04   0.277E+02 0.330E+02 0.253E+04   -.471E-01 -.495E-01 0.333E+01   -.426E-03 -.162E-01 -.132E-02
   0.172E+02 0.123E+02 -.255E+04   -.172E+02 -.124E+02 0.254E+04   0.483E-02 0.212E-01 0.331E+01   0.291E-01 -.339E-02 -.233E-02
   0.392E+02 0.378E+02 -.252E+04   -.392E+02 -.378E+02 0.252E+04   0.555E-01 0.210E-01 0.334E+01   0.281E-01 0.209E-01 -.704E-02
   0.605E+02 -.165E+02 -.250E+04   -.607E+02 0.165E+02 0.250E+04   0.184E+00 -.116E-01 0.339E+01   0.301E-01 0.849E-02 -.174E-01
   0.267E+02 -.333E+02 -.254E+04   -.268E+02 0.333E+02 0.253E+04   0.440E-01 -.476E-01 0.335E+01   0.288E-01 -.169E-01 -.122E-01
   0.229E+02 0.256E+02 -.252E+04   -.229E+02 -.256E+02 0.252E+04   -.313E-02 -.905E-02 0.326E+01   0.209E-02 -.573E-02 -.189E-01
   0.666E+02 0.103E+03 -.241E+04   -.668E+02 -.104E+03 0.240E+04   0.170E+00 0.586E+00 0.365E+01   0.990E-03 0.194E-01 -.176E-01
   0.117E+03 -.698E+02 -.230E+04   -.118E+03 0.699E+02 0.230E+04   0.188E+00 -.597E-01 0.208E+01   0.324E-03 0.631E-02 -.296E-01
   0.334E+02 -.778E+02 -.250E+04   -.334E+02 0.781E+02 0.249E+04   0.251E-01 -.251E+00 0.343E+01   0.162E-02 -.184E-01 -.247E-01
   -.195E+02 0.297E+02 -.252E+04   0.195E+02 -.296E+02 0.252E+04   0.139E-01 -.279E-01 0.323E+01   -.297E-01 -.687E-02 -.654E-02
   -.598E+02 0.119E+03 -.240E+04   0.600E+02 -.121E+03 0.239E+04   -.107E+00 0.121E+01 0.407E+01   -.286E-01 0.155E-01 -.118E-01
   -.104E+03 -.983E+02 -.229E+04   0.104E+03 0.987E+02 0.229E+04   -.315E+00 -.404E+00 0.222E+01   -.317E-01 0.356E-02 -.217E-01
   -.319E+02 -.771E+02 -.250E+04   0.320E+02 0.772E+02 0.250E+04   -.295E-01 -.142E+00 0.335E+01   -.283E-01 -.168E-01 -.152E-01
   -.301E+01 -.589E+01 -.147E+04   0.352E+01 0.685E+01 0.147E+04   -.482E+00 -.944E+00 0.218E+01   -.128E-01 0.518E-02 -.771E-02
   0.304E+03 -.135E+03 -.176E+04   -.347E+03 0.152E+03 0.175E+04   0.434E+02 -.177E+02 0.575E+01   -.215E-02 -.329E-02 -.113E-01
   -.113E+01 0.148E+03 -.198E+04   0.150E+01 -.170E+03 0.203E+04   -.363E+00 0.216E+02 -.557E+02   -.127E-01 -.131E-01 0.105E-01
   -.305E+03 0.318E+02 -.171E+04   0.347E+03 -.381E+02 0.170E+04   -.426E+02 0.632E+01 0.125E+02   -.114E-01 0.625E-02 -.170E-01
   0.146E+00 -.105E+02 0.370E+02   -.568E-13 -.142E-13 0.682E-12   -.100E+00 0.105E+02 -.357E+02   -.447E-01 0.261E-01 -.130E+01

 POSITION                                       TOTAL-FORCE (eV/Angst)
      1.37275      1.37275     12.08797        -0.008753     -0.024122     -0.031159
      1.37275      4.11824     12.08797         0.007211      0.013105      0.007477
      1.37275      6.86373     12.08797        -0.001690     -0.017364      0.031770
      1.37275      9.60922     12.08797         0.001245      0.015032     -0.035488
      4.11824      1.37275     12.08797         0.005594     -0.003356      0.002269
      4.11824      4.11824     12.08797         0.002973      0.009594      0.002904
      4.11824      6.86373     12.08797         0.004754     -0.018427      0.007104
      4.11824      9.60922     12.08797        -0.011993     -0.009883     -0.007129
      6.86373      1.37275     12.08797         0.000406      0.000391      0.006659
      6.86373      4.11824     12.08797         0.005079     -0.000479     -0.017264
      6.86373      6.86373     12.08797         0.006691     -0.000365     -0.005506
      6.86373      9.60922     12.08797         0.003399     -0.002881      0.007089
      9.60922      1.37275     12.08797         0.001086     -0.007188     -0.008538
      9.60922      4.11824     12.08797         0.003320      0.008698      0.003985
      9.60922      6.86373     12.08797        -0.006733     -0.015232      0.014339
      9.60922      9.60922     12.08797         0.004567     -0.007987      0.001686
     10.98155     10.97751     14.04125         0.000388      0.000334      0.000191
      0.00056      2.74381     14.03682         0.000109      0.000184      0.000431
     10.97834      5.49057     14.04502         0.000346      0.000605      0.000071
     10.97889      8.22977     14.04635         0.000323      0.000767      0.000332
      2.74386     10.97587     14.04037         0.000274      0.000618      0.000761
      2.74757      2.74453     14.03600         0.000161      0.000287      0.000961
      2.75310      5.48944     14.04690        -0.000022      0.000776      0.000230
      2.74722      8.22940     14.04404         0.000315      0.000732      0.000418
      5.49098     10.98054     14.03798        -0.000597     -0.000103      0.000882
      5.49359      2.75081     14.04255        -0.000717     -0.000054      0.000905
      5.49807      5.48951     14.04460        -0.000453      0.000324      0.000902
      5.49012      8.22873     14.04195        -0.000057      0.000044      0.001127
      8.23770     10.98138     14.03937        -0.000238     -0.000079     -0.000296
      8.23698      2.75003     14.04049        -0.000323     -0.000291      0.000211
      8.23341      5.48869     14.04799        -0.000229      0.000181     -0.000002
      8.23739      8.22925     14.04294         0.000014     -0.000042      0.000294
      1.37246      1.36657     15.98121         0.000194      0.001411      0.001082
      1.37657      4.11066     15.97795        -0.000201      0.001252      0.000934
      1.37515      6.86031     15.98458         0.000222      0.001509      0.000522
      1.37215      9.60252     15.98713         0.000229      0.001162      0.001041
      4.11449      1.36718     15.97431        -0.000016      0.001180      0.002084
      4.12868      4.12347     15.99642        -0.000561      0.000728      0.001285
      4.13962      6.84454     16.01161        -0.000257      0.001323      0.000492
      4.11694      9.60124     15.98250         0.000297      0.000542      0.001838
      6.86764      1.37326     15.97807        -0.000819      0.000019      0.000189
      6.86924      4.12840     16.01223        -0.001224     -0.000530     -0.000929
      6.86287      6.86010     16.00527        -0.000302      0.000088      0.000341
      6.86285      9.60922     15.97743         0.000037     -0.000355      0.000835
      9.60959      1.37281     15.98467         0.000163     -0.000039     -0.000620
      9.61023      4.11330     15.99535         0.000254      0.000244     -0.000904
      9.58954      6.84683     16.01200         0.000324      0.000586     -0.000888
      9.60936      9.60552     15.98391         0.000285     -0.000015      0.000085
     10.98178     10.97707     17.93914        -0.000080      0.000967      0.000913
      0.01380      2.73822     17.93856        -0.001540      0.001227      0.000251
      0.02080      5.48225     17.93798        -0.001178      0.001235     -0.000096
      0.00246      8.23481     17.94108         0.000081      0.000662      0.000309
      2.74714     10.97600     17.93638        -0.000213      0.002096      0.002871
      2.74317      2.73620     17.93776        -0.000209      0.002110      0.001796
      2.73332      5.48083     17.93922         0.000285      0.001963      0.000845
      2.74261      8.23279     17.94204         0.000390      0.001420      0.001722
      5.49122      0.00054     17.93513         0.000233      0.000811      0.000154
      5.47812      2.72029     17.91533         0.000756      0.001549      0.001878
      5.46580      5.51188     18.03044         0.000188      0.000203     -0.001820
      5.49195      8.26037     17.94097         0.000469     -0.000282      0.001266
      8.23453      0.00115     17.93706        -0.000128      0.000154     -0.000423
      8.24242      2.71204     17.94975        -0.000722      0.001402     -0.001534
      8.27685      5.55388     17.99691        -0.001574     -0.004021      0.001840
      8.23380      8.27232     17.94754         0.000386     -0.001597     -0.000189
      6.92330      4.64300     20.61201         0.010087      0.006917      0.003706
      5.84218      5.14336     20.10890        -0.003753      0.009950     -0.006750
      6.93029      4.19742     21.75473        -0.009164      0.011901      0.004692
      8.02518      4.59986     19.90388        -0.009391      0.008409     -0.006431
    total drift:                                0.001262     -0.001266      0.014004

  FREE ENERGIE OF THE ION-ELECTRON SYSTEM (eV)
  free  energy   TOTEN  =      -361.85045396 eV

  energy  without entropy=     -361.72945871  energy(sigma->0) =     -361.81012221

 d Force = 0.3096219E-04[ 0.712E-05, 0.548E-04]  d Energy = 0.2451952E-04 0.644E-05
 d Force =-0.3152587E+00[-0.315E+00,-0.315E+00]  d Ewald  =-0.3152593E+00 0.598E-06

 Conjugate gradient step on ions:
 trial-energy change:   -0.000025  1 .order   -0.000031   -0.000055   -0.000007
  (g-gl).g = 0.612E-04      g.g   = 0.706E-04  gl.gl    = 0.213E-03
 g(Force)  = 0.706E-04   g(Stress)= 0.000E+00 ortho     = 0.618E-05
 gamma     =   0.28754
 trial     =   0.75709
 opt step  =   0.87008  (harmonic =   0.87008) maximal distance =0.00091601
 next E    =  -361.850461   (d E  =  -0.00003)

 reached required accuracy - stopping structural energy minimisation

 total charge

[...]

 magnetization (x)

# of ion       s       p       d       tot
    1        0.000  -0.003   0.224   0.222
    2       -0.001  -0.004   0.207   0.202
    3       -0.002  -0.003   0.207   0.203
    4        0.001  -0.003   0.214   0.212
    5       -0.001  -0.003   0.215   0.211
    6       -0.001  -0.004   0.214   0.209
    7       -0.001  -0.003   0.215   0.211
    8       -0.000  -0.003   0.216   0.213
    9       -0.001  -0.004   0.211   0.206
   10       -0.000  -0.004   0.217   0.213
   11       -0.000  -0.003   0.219   0.216
   12       -0.001  -0.004   0.205   0.201
   13       -0.000  -0.003   0.219   0.215
   14       -0.001  -0.004   0.213   0.208
   15       -0.001  -0.004   0.210   0.206
   16       -0.000  -0.003   0.214   0.210
   17       -0.002  -0.006   0.317   0.309
   18       -0.002  -0.006   0.325   0.317
   19       -0.002  -0.006   0.317   0.309
   20       -0.002  -0.006   0.296   0.288
   21       -0.002  -0.006   0.318   0.310
   22       -0.002  -0.006   0.320   0.312
   23       -0.002  -0.006   0.316   0.308
   24       -0.002  -0.006   0.306   0.298
   25       -0.002  -0.006   0.315   0.307
   26       -0.002  -0.006   0.322   0.314
   27       -0.002  -0.006   0.324   0.316
   28       -0.002  -0.006   0.318   0.310
   29       -0.002  -0.006   0.319   0.310
   30       -0.002  -0.006   0.325   0.317
   31       -0.002  -0.006   0.314   0.306
   32       -0.002  -0.006   0.321   0.313
   33       -0.002  -0.006   0.329   0.320
   34       -0.002  -0.006   0.321   0.312
   35       -0.002  -0.006   0.306   0.298
   36       -0.001  -0.006   0.316   0.308
   37       -0.002  -0.006   0.320   0.312
   38       -0.002  -0.006   0.312   0.304
   39       -0.002  -0.006   0.288   0.280
   40       -0.002  -0.006   0.315   0.307
   41       -0.002  -0.006   0.317   0.308
   42       -0.001  -0.006   0.332   0.325
   43       -0.001  -0.006   0.310   0.303
   44       -0.002  -0.006   0.315   0.307
   45       -0.002  -0.006   0.323   0.315
   46       -0.002  -0.006   0.324   0.316
   47       -0.002  -0.006   0.272   0.264
   48       -0.002  -0.006   0.316   0.308
   49       -0.001  -0.004   0.204   0.200
   50       -0.001  -0.004   0.223   0.219
   51       -0.000  -0.003   0.208   0.204
   52       -0.001  -0.003   0.202   0.198
   53       -0.001  -0.004   0.201   0.196
   54       -0.001  -0.004   0.217   0.213
   55       -0.000  -0.004   0.206   0.202
   56       -0.001  -0.003   0.203   0.199
   57       -0.000  -0.003   0.199   0.196
   58       -0.001  -0.003   0.230   0.226
   59       -0.002  -0.004   0.185   0.179
   60       -0.001  -0.004   0.217   0.212
   61       -0.000  -0.004   0.202   0.198
   62       -0.001  -0.003   0.227   0.223
   63       -0.002  -0.003   0.180   0.175
   64       -0.001  -0.004   0.212   0.208
   65       -0.000  -0.001   0.000  -0.001
   66        0.001   0.014   0.000   0.014
   67        0.000   0.007   0.000   0.007
   68        0.001   0.015   0.000   0.016
tot         -0.080  -0.277  16.829  16.472